*HEADING
*NODE, NSET=ALLNODES
1, 0.00000000000000000000, 0.00000000000000000000
2, 0.05928733296946843423, 0.00000000000000000000
3, 0.17890478487409824937, -0.00265169688766544228
4, 0.36004735830374690053, -0.01483493110732077985
5, 0.54345821337217481428, -0.03563445140853427340
6, 0.72857691133607749290, -0.06540063171722855506
7, 0.91479416518886025322, -0.10443972176396351670
8, 1.10145565918637911018, -0.15300653402420194560
9, 1.28786707700791946962, -0.21129744223951102411
10, 1.47330032788710751923, -0.27944391278144892210
11, 1.65700091528763637783, -0.35750679602798973722
12, 1.83819634501365047896, -0.44547160085521586570
13, 2.01610542147816884651, -0.54324496023063739703
14, 2.18994823502268953774, -0.65065246931211073722
15, 2.35895660268465290343, -0.76743803977963542806
16, 2.52238469258266873041, -0.89326486658493631232
17, 2.67951954074013620755, -1.02771804796899357548
18, 2.82969116071332971174, -1.17030883928667095439
19, 2.97228195203100709065, -1.32048045925986401450
20, 3.10673513341506390972, -1.47761530741733082550
21, 3.23256196022036457194, -1.64104339731534643043
22, 3.34934753068788948482, -1.81005176497730957408
23, 3.45675503976936271400, -1.98389457852183004327
24, 3.55452839914478424532, -2.16180365498634818877
25, 3.64249320397201037380, -2.34299908471236273400
26, 3.72055608721855124443, -2.52669967211289137055
27, 3.78870255776048958651, -2.71213292299208008629
28, 3.84699346597579872054, -2.89854434081362066777
29, 3.89556027823603656657, -3.08520583481113952473
30, 3.93459936828277179188, -3.27142308866392239608
31, 3.96436554859146639274, -3.45654178662782518572
32, 3.98516506889267940750, -3.63995264169625309947
33, 3.99734830311233491074, -3.82109521512590166736
34, 4.00000000000000000000, -3.94071266703053124658
35, 4.00000000000000000000, -4.00000000000000000000
36, 0.00000000000000000000, 0.08333333333333334259
37, 0.06052248573966569067, 0.08333333333333335646
38, 0.18263196789230864980, 0.08062639276050823089
39, 0.36754834493507493320, 0.06818934116127672862
40, 0.55478025948409515067, 0.04695649752045462366
41, 0.74375559698891258176, 0.01657018845532919407
42, 0.93385237696362832782, -0.02328221596737942503
43, 1.12440265208609524450, -0.07286083681637282872
44, 1.31469764111225106973, -0.13236613895283416698
45, 1.50399408471808904153, -0.20193232763106241934
46, 1.69152176768946227448, -0.28162152094523951185
47, 1.87649210220143491945, -0.37141892587303293460
48, 2.05810761775896366998, -0.47122923023544227572
49, 2.23557215658566255101, -0.58087439575611310438
50, 2.40810153190725007022, -0.70009299894171128642
51, 2.57493437367814070882, -0.82854121797212243461
52, 2.73534286450555574888, -0.96579550730168095551
53, 2.88864305989485714576, -1.11135694010514307628
54, 3.03420449269831982164, -1.26465713549444469521
55, 3.17145878202787789846, -1.42506562632185884709
56, 3.29990700105828871358, -1.59189846809274970774
57, 3.41912560424388711766, -1.76442784341433722695
58, 3.52877076976455761326, -1.94189238224103477570
59, 3.62858107412696684335, -2.12350789779856397033
60, 3.71837847905475982202, -2.30847823231053661530
61, 3.79806767236893705331, -2.49600591528190962620
62, 3.86763386104716655467, -2.68530235888774848618
63, 3.92713916318362743496, -2.87559734791390475550
64, 3.97671778403262088375, -3.06614762303637222729
65, 4.01657018845532931550, -3.25624440301108775131
66, 4.04695649752045572001, -3.44521974051590529342
67, 4.06818934116127639555, -3.63245165506492595497
68, 4.08062639276050820314, -3.81736803210769126693
69, 4.08333333333333303727, -3.93947751426033399014
70, 4.08333333333333392545, -4.00000000000000000000
71, 0.00000000000000000000, 0.25000000000000000000
72, 0.06299279128006018968, 0.25000000000000005551
73, 0.19008633392872939516, 0.24718257205685556510
74, 0.38255031819773110957, 0.23423788569847175944
75, 0.57742435170793571242, 0.21213839537843240390
76, 0.77411296829458253743, 0.18051182880044469581
77, 0.97196880051316414395, 0.13903279562578874096
78, 1.17029663788552795722, 0.08743055759928539117
79, 1.36835876932091471403, 0.02549646762051951954
80, 1.56538159838005230817, -0.04690915733028951790
81, 1.76056347249311384573, -0.12985097077973919988
82, 1.95308361657700380043, -0.22331357590866698914
83, 2.14211201032055420512, -0.32719777024505231067
84, 2.32681999971160813345, -0.44131824864411772769
85, 2.50639139035244440379, -0.56540291726586278109
86, 2.68003373586908510973, -0.69909392074649501225
87, 2.84698951203639483154, -0.84195042596705582660
88, 3.00654685825791245790, -0.99345314174208798619
89, 3.15804957403294572771, -1.15301048796360583459
90, 3.30090607925350587593, -1.31996626413091466823
91, 3.43459708273413744095, -1.49360860964755626235
92, 3.55868175135588193925, -1.67318000028839208859
93, 3.67280222975494785587, -1.85788798967944468465
94, 3.77668642409133337168, -2.04691638342299597753
95, 3.87014902922026049481, -2.23943652750688571018
96, 3.95309084266971000332, -2.43461840161994746978
97, 4.02549646762051960280, -2.63164123067908528597
98, 4.08743055759928530790, -2.82970336211447293095
99, 4.13903279562578951811, -3.02803119948683674423
100, 4.18051182880044525092, -3.22588703170541801768
101, 4.21213839537843259819, -3.42257564829206550883
102, 4.23423788569847125984, -3.61744968180226944554
103, 4.24718257205685478795, -3.80991366607127046606
104, 4.25000000000000000000, -3.93700720871993992134
105, 4.25000000000000000000, -4.00000000000000000000
106, 0.00000000000000000000, 0.50000000000000000000
107, 0.06669824959065195902, 0.50000000000000000000
108, 0.20126788298336045768, 0.49701684100137649702
109, 0.40505327809171520759, 0.48331070250426416690
110, 0.61139049004369649953, 0.45991124216539891467
111, 0.81964902525308724890, 0.42642428931811793280
112, 1.02914343583746781263, 0.38250531301554097086
113, 1.23913761658467636018, 0.32786764922277261691
114, 1.44885046163390951435, 0.26229037748055000767
115, 1.65746286887299643098, 0.18562559812086987243
116, 1.86412602969859109159, 0.09780485446851133746
117, 2.06797088814035756599, -0.00115555096211802672
118, 2.26811859916293956374, -0.11115058025946725206
119, 2.46369176440052628507, -0.23198402797612477366
120, 2.65382617802023501596, -0.36336779475209013412
121, 2.83768277915550193313, -0.50492297490805371218
122, 3.01445948333265301144, -0.65618280396511807773
123, 3.18340255580249564815, -0.81659744419750501798
124, 3.34381719603488258841, -0.98554051666734754367
125, 3.49507702509194650986, -1.16231722084449784482
126, 3.63663220524790986588, -1.34617382197976542813
127, 3.76801597202387528185, -1.53630823559947460311
128, 3.88884941974053255365, -1.73188140083705954808
129, 3.99884444903788205394, -1.93202911185964287810
130, 4.09780485446851105991, -2.13587397030140868637
131, 4.18562559812086831812, -2.34253713112700312493
132, 4.26229037748055006318, -2.55114953836609048565
133, 4.32786764922277278345, -2.76086238341532386187
134, 4.38250531301554069330, -2.97085656416253307555
135, 4.42642428931811870996, -3.18035097474691319519
136, 4.45991124216539969183, -3.38860950995630538785
137, 4.48331070250426311219, -3.59494672190828490344
138, 4.49701684100137555333, -3.79873211701663970885
139, 4.50000000000000000000, -3.93330175040934815200
140, 4.50000000000000000000, -4.00000000000000000000
141, 0.00000000000000000000, 0.75000000000000000000
142, 0.07040370790124374223, 0.75000000000000000000
143, 0.21244943203799163123, 0.74685110994589742894
144, 0.42755623798569941663, 0.73238351931005662987
145, 0.64535662837945739767, 0.70768408895236545320
146, 0.86518508221159207139, 0.67233674983579116979
147, 1.08631807116177170336, 0.62597783040529308973
148, 1.30797859528382498517, 0.56830474084625992592
149, 1.52934215394690453671, 0.49908428734058052356
150, 1.74954413936594033174, 0.41816035357202918643
151, 1.96768858690406855949, 0.32546067971676190256
152, 2.18285815970371022132, 0.22100247398443090274
153, 2.39412518800532536645, 0.10489660972611780654
154, 2.60056352908944399260, -0.02264980730813177801
155, 2.80126096568802562814, -0.16133267223831740389
156, 2.99533182244191875654, -0.31075202906961224558
157, 3.18192945462891163544, -0.47041518196318021783
158, 3.36025825334707928249, -0.63974174665292227182
159, 3.52958481803682078137, -0.81807054537108903070
160, 3.68924797093038803197, -1.00466817755808124346
161, 3.83866732776168273489, -1.19873903431197481595
162, 3.97735019269186773627, -1.39943647091055622944
163, 4.10489660972611680734, -1.60587481199467418946
164, 4.22100247398443073621, -1.81714184029628977868
165, 4.32546067971676162500, -2.03231141309593210664
166, 4.41816035357202796519, -2.25045586063405922417
167, 4.49908428734058052356, -2.47065784605309612942
168, 4.56830474084626025899, -2.69202140471617523687
169, 4.62597783040529364484, -2.91368192883822896277
170, 4.67233674983579216899, -3.13481491778840881679
171, 4.70768408895236589728, -3.35464337162054437869
172, 4.73238351931005585271, -3.57244376201430124951
173, 4.74685110994589720690, -3.78755056796200806346
174, 4.74999999999999911182, -3.92959629209875638267
175, 4.75000000000000000000, -4.00000000000000000000
176, 0.00000000000000000000, 1.00000000000000000000
177, 0.07410916621183551156, 1.00000000000000000000
178, 0.22363098109262274926, 0.99668537889041830535
179, 0.45005919787968351464, 0.98145633611584914835
180, 0.67932276671521829581, 0.95545693573933199172
181, 0.91072113917009689388, 0.91824921035346440679
182, 1.14349270648607537204, 0.86945034779504537514
183, 1.37681957398297383222, 0.80874183246974729045
184, 1.60983384625989933703, 0.73587819720061098394
185, 1.84162540985888445455, 0.65069510902318861145
186, 2.07125114410954580535, 0.55311650496501241214
187, 2.29774543126706332075, 0.44316049893097980705
188, 2.52013177684771116915, 0.32094379971170289290
189, 2.73743529377836170013, 0.18668441335986124541
190, 2.94869575335581624032, 0.04070245027545534716
191, 3.15298086572833513586, -0.11658108323117082061
192, 3.34939942592516981534, -0.28464755996124241344
193, 3.53711395089166247274, -0.46288604910833935913
194, 3.71535244003875853025, -0.65060057407483062875
195, 3.88341891676882955409, -0.84701913427166430903
196, 4.04070245027545560390, -1.05130424664418398173
197, 4.18668441335986063478, -1.26256470622163829987
198, 4.32094379971170194921, -1.47986822315228883085
199, 4.44316049893097986256, -1.70225456873293690130
200, 4.55311650496501130192, -1.92874885589045463874
201, 4.65069510902318761225, -2.15837459014111532341
202, 4.73587819720061009576, -2.39016615374010132911
203, 4.80874183246974862271, -2.62318042601702661187
204, 4.86945034779504570821, -2.85650729351392529409
205, 4.91824921035346473985, -3.08927886082990399430
206, 4.95545693573933210274, -3.32067723328478292544
207, 4.98145633611584770506, -3.54994080212031670740
208, 4.99668537889041708411, -3.77636901890737641807
209, 4.99999999999999822364, -3.92589083378816461334
210, 5.00000000000000000000, -4.00000000000000000000
211, 0.00000000000000000000, 1.25000000000000000000
212, 0.07781462452242730865, 1.25000000000000000000
213, 0.23481253014725389505, 1.24651964783493918176
214, 0.47256215777366766817, 1.23052915292164177785
215, 0.71328890505097919394, 1.20322978252629853024
216, 0.95625719612860160534, 1.16416167087113775480
217, 1.20066734181037904072, 1.11292286518479754953
218, 1.44566055268212245721, 1.04917892409323454395
219, 1.69032553857289435939, 0.97267210706064133330
220, 1.93370668035182857736, 0.88322986447434814750
221, 2.17481370131502327325, 0.78077233021326297724
222, 2.41263270283041642017, 0.66531852387752865585
223, 2.64613836569009652777, 0.53699098969728809028
224, 2.87430705846727985175, 0.39601863402785425494
225, 3.09613054102360729658, 0.24273757278922805658
226, 3.31062990901475284744, 0.07758986260727059048
227, 3.51686939722142799525, -0.09887993795930460905
228, 3.71396964843624521890, -0.28603035156375622439
229, 3.90112006204069627913, -0.48313060277857222680
230, 4.07758986260727063211, -0.68937009098524748563
231, 4.24273757278922847291, -0.90386945897639348058
232, 4.39601863402785308921, -1.12569294153272037029
233, 4.53699098969728709108, -1.35386163430990347223
234, 4.66531852387752898892, -1.58736729716958357983
235, 4.78077233021326275519, -1.82518629868497739288
236, 4.88322986447434725932, -2.06629331964817186673
237, 4.97267210706064055614, -2.30967446142710608470
238, 5.04917892409323521008, -2.55433944731787798688
239, 5.11292286518479777158, -2.79933265818962118132
240, 5.16416167087113819889, -3.04374280387139917181
241, 5.20322978252629830820, -3.28671109494902147219
242, 5.23052915292164044558, -3.52743784222633305347
243, 5.24651964783493784950, -3.76518746985274566086
244, 5.24999999999999911182, -3.92218537547757284401
245, 5.25000000000000000000, -4.00000000000000000000
246, 0.00000000000000000000, 1.50000000000000000000
247, 0.08152008283301909186, 1.50000000000000022204
248, 0.24599407920188509635, 1.49635391677946016920
249, 0.49506511766765198823, 1.47960196972743407429
250, 0.74725504338674031413, 1.45100262931326517979
251, 1.00179325308710653886, 1.41007413138881076975
252, 1.25784197713468270940, 1.35639538257454983494
253, 1.51450153138127152630, 1.28961601571672201949
254, 1.77081723088588960380, 1.20946601692067190470
255, 2.02578795084477292221, 1.11576461992550735047
256, 2.27837625852050118525, 1.00842815546151376438
257, 2.52751997439376996368, 0.88747654882407767118
258, 2.77214495453248233048, 0.75303817968287312112
259, 3.01117882315619844746, 0.60535285469584731999
260, 3.24356532869139790876, 0.44477269530300084233
261, 3.46827895230116967085, 0.27176080844571193218
262, 3.68433936851768661924, 0.08688768404263320921
263, 3.89082534598082840915, -0.10917465401917317291
264, 4.08688768404263402800, -0.31566063148231382485
265, 4.27176080844571348649, -0.53172104769883077324
266, 4.44477269530300134193, -0.75643467130860286840
267, 4.60535285469584643181, -0.98882117684380232969
268, 4.75303817968287223295, -1.22785504546751789157
269, 4.88747654882407722710, -1.47248002560623070245
270, 5.00842815546151332029, -1.72162374147950059111
271, 5.11576461992550690638, -1.97421204915522774392
272, 5.20946601692067101652, -2.22918276911411128438
273, 5.28961601571672268562, -2.48549846861872936188
274, 5.35639538257454983494, -2.74215802286531751264
275, 5.41007413138881076975, -2.99820674691289434932
276, 5.45100262931326540183, -3.25274495661326046303
277, 5.47960196972743318611, -3.50493488233234895546
278, 5.49635391677945861488, -3.75400592079811445956
279, 5.50000000000000000000, -3.91847991716698151876
280, 5.50000000000000000000, -4.00000000000000000000
281, 0.00000000000000000000, 1.75000000000000000000
282, 0.08522554114361087507, 1.75000000000000000000
283, 0.25717562825651629765, 1.74618818572398093458
284, 0.51756807756163625278, 1.72867478653322637072
285, 0.78122118172250132329, 1.69877547610023182934
286, 1.04732931004561136135, 1.65598659190648400674
287, 1.31501661245898637809, 1.59986789996430212035
288, 1.58334251008042015130, 1.53005310734020949504
289, 1.85130892319888462616, 1.44625992678070258712
290, 2.11786922133771771115, 1.34829937537666699754
291, 2.38193881572597776497, 1.23608398070976432948
292, 2.64240724595712306311, 1.10963457377062657550
293, 2.89815154337486857727, 0.96908536966845815197
294, 3.14805058784511704317, 0.81468707536384032952
295, 3.39100011635918896502, 0.64680781781677354481
296, 3.62592799558758693834, 0.46593175428415334327
297, 3.85180933981394479915, 0.27265530604457105524
298, 4.06768104352541115531, 0.06768104352540985080
299, 4.27265530604457222097, -0.14819066018605553392
300, 4.46593175428415456452, -0.37407200441241394984
301, 4.64680781781677421094, -0.60899988364081214520
302, 4.81468707536383977441, -0.85194941215488440012
303, 4.96908536966845826299, -1.10184845662513253295
304, 5.10963457377062724163, -1.35759275404287738098
305, 5.23608398070976388539, -1.61806118427402334525
306, 5.34829937537666566527, -1.88213077866228317703
307, 5.44625992678070236508, -2.14869107680111648406
308, 5.53005310734020927299, -2.41665748991958118097
309, 5.59986789996430278649, -2.68498338754101428805
310, 5.65598659190648334061, -2.95267068995438952683
311, 5.69877547610023160729, -3.21877881827749945387
312, 5.72867478653322592663, -3.48243192243836485744
313, 5.74618818572398115663, -3.74282437174348414644
314, 5.75000000000000000000, -3.91477445885638930534
315, 5.75000000000000000000, -4.00000000000000000000
316, 0.00000000000000000000, 1.91666666666666674068
317, 0.08769584668400540184, 1.91666666666666674068
318, 0.26462999429293704301, 1.91274436502032840757
319, 0.53257005082429242915, 1.89472333107042123501
320, 0.80386527394634199606, 1.86395737395820959570
321, 1.07768668135128131702, 1.81992823225159927603
322, 1.35313303600852252728, 1.76218291155747031063
323, 1.62923649587985286402, 1.69034450175586803411
324, 1.90497005140754804842, 1.60412253335405652344
325, 2.17925673499968075575, 1.50332254567743994755
326, 2.45098052052962955827, 1.38785453087526500227
327, 2.71899876033269194409, 1.25773992373499265973
328, 2.98215593593645911241, 1.11311682965884828356
329, 3.23929843097106262562, 0.95424322247583581724
330, 3.48928997480438285450, 0.78149789949262205013
331, 3.73102735777853133925, 0.59537905150978098767
332, 3.96345598734478432590, 0.39650038737919623966
333, 4.18558484188846691154, 0.18558484188846516294
334, 4.39650038737919768295, -0.03654401265521663861
335, 4.59537905150978254198, -0.26897264222146949342
336, 4.78149789949262338240, -0.51071002519561825572
337, 4.95424322247583592826, -0.76070156902893915074
338, 5.11311682965884894969, -1.01784406406354221986
339, 5.25773992373499243769, -1.28100123966730894409
340, 5.38785453087526455818, -1.54901947947037199604
341, 5.50332254567743905938, -1.82074326500032057652
342, 5.60412253335405630139, -2.09502994859245328385
343, 5.69034450175586759002, -2.37076350412014891234
344, 5.76218291155747053267, -2.64686696399147880499
345, 5.81992823225159927603, -2.92231331864872023729
346, 5.86395737395820848548, -3.19613472605365878110
347, 5.89472333107041990274, -3.46742994917570879210
348, 5.91274436502032774143, -3.73537000570706290148
349, 5.91666666666666607455, -3.91230415331599479245
350, 5.91666666666666696273, -4.00000000000000000000
351, 0.00000000000000000000, 2.00000000000000000000
352, 0.08893099945420267216, 2.00000000000000000000
353, 0.26835717731114744344, 1.99602245466850192201
354, 0.54007103745562046182, 1.97774760333901866716
355, 0.81518732005826233245, 1.94654832288719825684
356, 1.09286536700411640588, 1.90189905242415702169
357, 1.37219124778329071290, 1.84334041735405440576
358, 1.65218348877956899834, 1.77049019896369697058
359, 1.93180061551187964852, 1.68305383664073326955
360, 2.20995049183066205600, 1.58083413082782642256
361, 2.48550137293145567696, 1.46373980595801511662
362, 2.75729451752047660662, 1.33179259871717592389
363, 3.02415813221725437998, 1.18513255965404340486
364, 3.28492235253403519479, 1.02402129603183333906
365, 3.53843490402698046537, 0.84884294033054630280
366, 3.78357703887400376175, 0.66010270012259475436
367, 4.01927931111020431132, 0.45842292804650885962
368, 4.24453674106999478965, 0.24453674106999279125
369, 4.45842292804651041394, 0.01927931111020280558
370, 4.66010270012259653072, -0.21642296112599732072
371, 4.84884294033054707995, -0.46156509597302142200
372, 5.02402129603183400519, -0.71507764746596658156
373, 5.18513255965404429304, -0.97584186778274717433
374, 5.33179259871717547981, -1.24270548247952472565
375, 5.46373980595801445048, -1.51449862706854609939
376, 5.58083413082782531234, -1.79004950816933927626
377, 5.68305383664073282546, -2.06819938448812212783
378, 5.77049019896369674854, -2.34781651122043255597
379, 5.84334041735405396167, -2.62780875221671061936
380, 5.90189905242415679965, -2.90713463299588514843
381, 5.94654832288719781275, -3.18481267994173888880
382, 5.97774760333901777898, -3.45992896254438031534
383, 5.99602245466850103384, -3.73164282268885294513
384, 6.00000000000000000000, -3.91106900054579753601
385, 6.00000000000000000000, -4.00000000000000000000
*USER ELEMENT, NODES=16, TYPE=U1,
PROPERTIES=17, COORDINATES=2
1, 2
*ELEMENT, TYPE=U1, ELSET=ELSET1
1,
1,2,3,4,
36,37,38,39,
71,72,73,74,
106,107,108,109
2,
2,3,4,5,
37,38,39,40,
72,73,74,75,
107,108,109,110
3,
3,4,5,6,
38,39,40,41,
73,74,75,76,
108,109,110,111
4,
4,5,6,7,
39,40,41,42,
74,75,76,77,
109,110,111,112
5,
5,6,7,8,
40,41,42,43,
75,76,77,78,
110,111,112,113
6,
6,7,8,9,
41,42,43,44,
76,77,78,79,
111,112,113,114
7,
7,8,9,10,
42,43,44,45,
77,78,79,80,
112,113,114,115
8,
8,9,10,11,
43,44,45,46,
78,79,80,81,
113,114,115,116
9,
9,10,11,12,
44,45,46,47,
79,80,81,82,
114,115,116,117
10,
10,11,12,13,
45,46,47,48,
80,81,82,83,
115,116,117,118
11,
11,12,13,14,
46,47,48,49,
81,82,83,84,
116,117,118,119
12,
12,13,14,15,
47,48,49,50,
82,83,84,85,
117,118,119,120
13,
13,14,15,16,
48,49,50,51,
83,84,85,86,
118,119,120,121
14,
14,15,16,17,
49,50,51,52,
84,85,86,87,
119,120,121,122
15,
15,16,17,18,
50,51,52,53,
85,86,87,88,
120,121,122,123
16,
16,17,18,19,
51,52,53,54,
86,87,88,89,
121,122,123,124
17,
17,18,19,20,
52,53,54,55,
87,88,89,90,
122,123,124,125
18,
18,19,20,21,
53,54,55,56,
88,89,90,91,
123,124,125,126
19,
19,20,21,22,
54,55,56,57,
89,90,91,92,
124,125,126,127
20,
20,21,22,23,
55,56,57,58,
90,91,92,93,
125,126,127,128
21,
21,22,23,24,
56,57,58,59,
91,92,93,94,
126,127,128,129
22,
22,23,24,25,
57,58,59,60,
92,93,94,95,
127,128,129,130
23,
23,24,25,26,
58,59,60,61,
93,94,95,96,
128,129,130,131
24,
24,25,26,27,
59,60,61,62,
94,95,96,97,
129,130,131,132
25,
25,26,27,28,
60,61,62,63,
95,96,97,98,
130,131,132,133
26,
26,27,28,29,
61,62,63,64,
96,97,98,99,
131,132,133,134
27,
27,28,29,30,
62,63,64,65,
97,98,99,100,
132,133,134,135
28,
28,29,30,31,
63,64,65,66,
98,99,100,101,
133,134,135,136
29,
29,30,31,32,
64,65,66,67,
99,100,101,102,
134,135,136,137
30,
30,31,32,33,
65,66,67,68,
100,101,102,103,
135,136,137,138
31,
31,32,33,34,
66,67,68,69,
101,102,103,104,
136,137,138,139
32,
32,33,34,35,
67,68,69,70,
102,103,104,105,
137,138,139,140
33,
36,37,38,39,
71,72,73,74,
106,107,108,109,
141,142,143,144
34,
37,38,39,40,
72,73,74,75,
107,108,109,110,
142,143,144,145
35,
38,39,40,41,
73,74,75,76,
108,109,110,111,
143,144,145,146
36,
39,40,41,42,
74,75,76,77,
109,110,111,112,
144,145,146,147
37,
40,41,42,43,
75,76,77,78,
110,111,112,113,
145,146,147,148
38,
41,42,43,44,
76,77,78,79,
111,112,113,114,
146,147,148,149
39,
42,43,44,45,
77,78,79,80,
112,113,114,115,
147,148,149,150
40,
43,44,45,46,
78,79,80,81,
113,114,115,116,
148,149,150,151
41,
44,45,46,47,
79,80,81,82,
114,115,116,117,
149,150,151,152
42,
45,46,47,48,
80,81,82,83,
115,116,117,118,
150,151,152,153
43,
46,47,48,49,
81,82,83,84,
116,117,118,119,
151,152,153,154
44,
47,48,49,50,
82,83,84,85,
117,118,119,120,
152,153,154,155
45,
48,49,50,51,
83,84,85,86,
118,119,120,121,
153,154,155,156
46,
49,50,51,52,
84,85,86,87,
119,120,121,122,
154,155,156,157
47,
50,51,52,53,
85,86,87,88,
120,121,122,123,
155,156,157,158
48,
51,52,53,54,
86,87,88,89,
121,122,123,124,
156,157,158,159
49,
52,53,54,55,
87,88,89,90,
122,123,124,125,
157,158,159,160
50,
53,54,55,56,
88,89,90,91,
123,124,125,126,
158,159,160,161
51,
54,55,56,57,
89,90,91,92,
124,125,126,127,
159,160,161,162
52,
55,56,57,58,
90,91,92,93,
125,126,127,128,
160,161,162,163
53,
56,57,58,59,
91,92,93,94,
126,127,128,129,
161,162,163,164
54,
57,58,59,60,
92,93,94,95,
127,128,129,130,
162,163,164,165
55,
58,59,60,61,
93,94,95,96,
128,129,130,131,
163,164,165,166
56,
59,60,61,62,
94,95,96,97,
129,130,131,132,
164,165,166,167
57,
60,61,62,63,
95,96,97,98,
130,131,132,133,
165,166,167,168
58,
61,62,63,64,
96,97,98,99,
131,132,133,134,
166,167,168,169
59,
62,63,64,65,
97,98,99,100,
132,133,134,135,
167,168,169,170
60,
63,64,65,66,
98,99,100,101,
133,134,135,136,
168,169,170,171
61,
64,65,66,67,
99,100,101,102,
134,135,136,137,
169,170,171,172
62,
65,66,67,68,
100,101,102,103,
135,136,137,138,
170,171,172,173
63,
66,67,68,69,
101,102,103,104,
136,137,138,139,
171,172,173,174
64,
67,68,69,70,
102,103,104,105,
137,138,139,140,
172,173,174,175
65,
71,72,73,74,
106,107,108,109,
141,142,143,144,
176,177,178,179
66,
72,73,74,75,
107,108,109,110,
142,143,144,145,
177,178,179,180
67,
73,74,75,76,
108,109,110,111,
143,144,145,146,
178,179,180,181
68,
74,75,76,77,
109,110,111,112,
144,145,146,147,
179,180,181,182
69,
75,76,77,78,
110,111,112,113,
145,146,147,148,
180,181,182,183
70,
76,77,78,79,
111,112,113,114,
146,147,148,149,
181,182,183,184
71,
77,78,79,80,
112,113,114,115,
147,148,149,150,
182,183,184,185
72,
78,79,80,81,
113,114,115,116,
148,149,150,151,
183,184,185,186
73,
79,80,81,82,
114,115,116,117,
149,150,151,152,
184,185,186,187
74,
80,81,82,83,
115,116,117,118,
150,151,152,153,
185,186,187,188
75,
81,82,83,84,
116,117,118,119,
151,152,153,154,
186,187,188,189
76,
82,83,84,85,
117,118,119,120,
152,153,154,155,
187,188,189,190
77,
83,84,85,86,
118,119,120,121,
153,154,155,156,
188,189,190,191
78,
84,85,86,87,
119,120,121,122,
154,155,156,157,
189,190,191,192
79,
85,86,87,88,
120,121,122,123,
155,156,157,158,
190,191,192,193
80,
86,87,88,89,
121,122,123,124,
156,157,158,159,
191,192,193,194
81,
87,88,89,90,
122,123,124,125,
157,158,159,160,
192,193,194,195
82,
88,89,90,91,
123,124,125,126,
158,159,160,161,
193,194,195,196
83,
89,90,91,92,
124,125,126,127,
159,160,161,162,
194,195,196,197
84,
90,91,92,93,
125,126,127,128,
160,161,162,163,
195,196,197,198
85,
91,92,93,94,
126,127,128,129,
161,162,163,164,
196,197,198,199
86,
92,93,94,95,
127,128,129,130,
162,163,164,165,
197,198,199,200
87,
93,94,95,96,
128,129,130,131,
163,164,165,166,
198,199,200,201
88,
94,95,96,97,
129,130,131,132,
164,165,166,167,
199,200,201,202
89,
95,96,97,98,
130,131,132,133,
165,166,167,168,
200,201,202,203
90,
96,97,98,99,
131,132,133,134,
166,167,168,169,
201,202,203,204
91,
97,98,99,100,
132,133,134,135,
167,168,169,170,
202,203,204,205
92,
98,99,100,101,
133,134,135,136,
168,169,170,171,
203,204,205,206
93,
99,100,101,102,
134,135,136,137,
169,170,171,172,
204,205,206,207
94,
100,101,102,103,
135,136,137,138,
170,171,172,173,
205,206,207,208
95,
101,102,103,104,
136,137,138,139,
171,172,173,174,
206,207,208,209
96,
102,103,104,105,
137,138,139,140,
172,173,174,175,
207,208,209,210
97,
106,107,108,109,
141,142,143,144,
176,177,178,179,
211,212,213,214
98,
107,108,109,110,
142,143,144,145,
177,178,179,180,
212,213,214,215
99,
108,109,110,111,
143,144,145,146,
178,179,180,181,
213,214,215,216
100,
109,110,111,112,
144,145,146,147,
179,180,181,182,
214,215,216,217
101,
110,111,112,113,
145,146,147,148,
180,181,182,183,
215,216,217,218
102,
111,112,113,114,
146,147,148,149,
181,182,183,184,
216,217,218,219
103,
112,113,114,115,
147,148,149,150,
182,183,184,185,
217,218,219,220
104,
113,114,115,116,
148,149,150,151,
183,184,185,186,
218,219,220,221
105,
114,115,116,117,
149,150,151,152,
184,185,186,187,
219,220,221,222
106,
115,116,117,118,
150,151,152,153,
185,186,187,188,
220,221,222,223
107,
116,117,118,119,
151,152,153,154,
186,187,188,189,
221,222,223,224
108,
117,118,119,120,
152,153,154,155,
187,188,189,190,
222,223,224,225
109,
118,119,120,121,
153,154,155,156,
188,189,190,191,
223,224,225,226
110,
119,120,121,122,
154,155,156,157,
189,190,191,192,
224,225,226,227
111,
120,121,122,123,
155,156,157,158,
190,191,192,193,
225,226,227,228
112,
121,122,123,124,
156,157,158,159,
191,192,193,194,
226,227,228,229
113,
122,123,124,125,
157,158,159,160,
192,193,194,195,
227,228,229,230
114,
123,124,125,126,
158,159,160,161,
193,194,195,196,
228,229,230,231
115,
124,125,126,127,
159,160,161,162,
194,195,196,197,
229,230,231,232
116,
125,126,127,128,
160,161,162,163,
195,196,197,198,
230,231,232,233
117,
126,127,128,129,
161,162,163,164,
196,197,198,199,
231,232,233,234
118,
127,128,129,130,
162,163,164,165,
197,198,199,200,
232,233,234,235
119,
128,129,130,131,
163,164,165,166,
198,199,200,201,
233,234,235,236
120,
129,130,131,132,
164,165,166,167,
199,200,201,202,
234,235,236,237
121,
130,131,132,133,
165,166,167,168,
200,201,202,203,
235,236,237,238
122,
131,132,133,134,
166,167,168,169,
201,202,203,204,
236,237,238,239
123,
132,133,134,135,
167,168,169,170,
202,203,204,205,
237,238,239,240
124,
133,134,135,136,
168,169,170,171,
203,204,205,206,
238,239,240,241
125,
134,135,136,137,
169,170,171,172,
204,205,206,207,
239,240,241,242
126,
135,136,137,138,
170,171,172,173,
205,206,207,208,
240,241,242,243
127,
136,137,138,139,
171,172,173,174,
206,207,208,209,
241,242,243,244
128,
137,138,139,140,
172,173,174,175,
207,208,209,210,
242,243,244,245
129,
141,142,143,144,
176,177,178,179,
211,212,213,214,
246,247,248,249
130,
142,143,144,145,
177,178,179,180,
212,213,214,215,
247,248,249,250
131,
143,144,145,146,
178,179,180,181,
213,214,215,216,
248,249,250,251
132,
144,145,146,147,
179,180,181,182,
214,215,216,217,
249,250,251,252
133,
145,146,147,148,
180,181,182,183,
215,216,217,218,
250,251,252,253
134,
146,147,148,149,
181,182,183,184,
216,217,218,219,
251,252,253,254
135,
147,148,149,150,
182,183,184,185,
217,218,219,220,
252,253,254,255
136,
148,149,150,151,
183,184,185,186,
218,219,220,221,
253,254,255,256
137,
149,150,151,152,
184,185,186,187,
219,220,221,222,
254,255,256,257
138,
150,151,152,153,
185,186,187,188,
220,221,222,223,
255,256,257,258
139,
151,152,153,154,
186,187,188,189,
221,222,223,224,
256,257,258,259
140,
152,153,154,155,
187,188,189,190,
222,223,224,225,
257,258,259,260
141,
153,154,155,156,
188,189,190,191,
223,224,225,226,
258,259,260,261
142,
154,155,156,157,
189,190,191,192,
224,225,226,227,
259,260,261,262
143,
155,156,157,158,
190,191,192,193,
225,226,227,228,
260,261,262,263
144,
156,157,158,159,
191,192,193,194,
226,227,228,229,
261,262,263,264
145,
157,158,159,160,
192,193,194,195,
227,228,229,230,
262,263,264,265
146,
158,159,160,161,
193,194,195,196,
228,229,230,231,
263,264,265,266
147,
159,160,161,162,
194,195,196,197,
229,230,231,232,
264,265,266,267
148,
160,161,162,163,
195,196,197,198,
230,231,232,233,
265,266,267,268
149,
161,162,163,164,
196,197,198,199,
231,232,233,234,
266,267,268,269
150,
162,163,164,165,
197,198,199,200,
232,233,234,235,
267,268,269,270
151,
163,164,165,166,
198,199,200,201,
233,234,235,236,
268,269,270,271
152,
164,165,166,167,
199,200,201,202,
234,235,236,237,
269,270,271,272
153,
165,166,167,168,
200,201,202,203,
235,236,237,238,
270,271,272,273
154,
166,167,168,169,
201,202,203,204,
236,237,238,239,
271,272,273,274
155,
167,168,169,170,
202,203,204,205,
237,238,239,240,
272,273,274,275
156,
168,169,170,171,
203,204,205,206,
238,239,240,241,
273,274,275,276
157,
169,170,171,172,
204,205,206,207,
239,240,241,242,
274,275,276,277
158,
170,171,172,173,
205,206,207,208,
240,241,242,243,
275,276,277,278
159,
171,172,173,174,
206,207,208,209,
241,242,243,244,
276,277,278,279
160,
172,173,174,175,
207,208,209,210,
242,243,244,245,
277,278,279,280
161,
176,177,178,179,
211,212,213,214,
246,247,248,249,
281,282,283,284
162,
177,178,179,180,
212,213,214,215,
247,248,249,250,
282,283,284,285
163,
178,179,180,181,
213,214,215,216,
248,249,250,251,
283,284,285,286
164,
179,180,181,182,
214,215,216,217,
249,250,251,252,
284,285,286,287
165,
180,181,182,183,
215,216,217,218,
250,251,252,253,
285,286,287,288
166,
181,182,183,184,
216,217,218,219,
251,252,253,254,
286,287,288,289
167,
182,183,184,185,
217,218,219,220,
252,253,254,255,
287,288,289,290
168,
183,184,185,186,
218,219,220,221,
253,254,255,256,
288,289,290,291
169,
184,185,186,187,
219,220,221,222,
254,255,256,257,
289,290,291,292
170,
185,186,187,188,
220,221,222,223,
255,256,257,258,
290,291,292,293
171,
186,187,188,189,
221,222,223,224,
256,257,258,259,
291,292,293,294
172,
187,188,189,190,
222,223,224,225,
257,258,259,260,
292,293,294,295
173,
188,189,190,191,
223,224,225,226,
258,259,260,261,
293,294,295,296
174,
189,190,191,192,
224,225,226,227,
259,260,261,262,
294,295,296,297
175,
190,191,192,193,
225,226,227,228,
260,261,262,263,
295,296,297,298
176,
191,192,193,194,
226,227,228,229,
261,262,263,264,
296,297,298,299
177,
192,193,194,195,
227,228,229,230,
262,263,264,265,
297,298,299,300
178,
193,194,195,196,
228,229,230,231,
263,264,265,266,
298,299,300,301
179,
194,195,196,197,
229,230,231,232,
264,265,266,267,
299,300,301,302
180,
195,196,197,198,
230,231,232,233,
265,266,267,268,
300,301,302,303
181,
196,197,198,199,
231,232,233,234,
266,267,268,269,
301,302,303,304
182,
197,198,199,200,
232,233,234,235,
267,268,269,270,
302,303,304,305
183,
198,199,200,201,
233,234,235,236,
268,269,270,271,
303,304,305,306
184,
199,200,201,202,
234,235,236,237,
269,270,271,272,
304,305,306,307
185,
200,201,202,203,
235,236,237,238,
270,271,272,273,
305,306,307,308
186,
201,202,203,204,
236,237,238,239,
271,272,273,274,
306,307,308,309
187,
202,203,204,205,
237,238,239,240,
272,273,274,275,
307,308,309,310
188,
203,204,205,206,
238,239,240,241,
273,274,275,276,
308,309,310,311
189,
204,205,206,207,
239,240,241,242,
274,275,276,277,
309,310,311,312
190,
205,206,207,208,
240,241,242,243,
275,276,277,278,
310,311,312,313
191,
206,207,208,209,
241,242,243,244,
276,277,278,279,
311,312,313,314
192,
207,208,209,210,
242,243,244,245,
277,278,279,280,
312,313,314,315
193,
211,212,213,214,
246,247,248,249,
281,282,283,284,
316,317,318,319
194,
212,213,214,215,
247,248,249,250,
282,283,284,285,
317,318,319,320
195,
213,214,215,216,
248,249,250,251,
283,284,285,286,
318,319,320,321
196,
214,215,216,217,
249,250,251,252,
284,285,286,287,
319,320,321,322
197,
215,216,217,218,
250,251,252,253,
285,286,287,288,
320,321,322,323
198,
216,217,218,219,
251,252,253,254,
286,287,288,289,
321,322,323,324
199,
217,218,219,220,
252,253,254,255,
287,288,289,290,
322,323,324,325
200,
218,219,220,221,
253,254,255,256,
288,289,290,291,
323,324,325,326
201,
219,220,221,222,
254,255,256,257,
289,290,291,292,
324,325,326,327
202,
220,221,222,223,
255,256,257,258,
290,291,292,293,
325,326,327,328
203,
221,222,223,224,
256,257,258,259,
291,292,293,294,
326,327,328,329
204,
222,223,224,225,
257,258,259,260,
292,293,294,295,
327,328,329,330
205,
223,224,225,226,
258,259,260,261,
293,294,295,296,
328,329,330,331
206,
224,225,226,227,
259,260,261,262,
294,295,296,297,
329,330,331,332
207,
225,226,227,228,
260,261,262,263,
295,296,297,298,
330,331,332,333
208,
226,227,228,229,
261,262,263,264,
296,297,298,299,
331,332,333,334
209,
227,228,229,230,
262,263,264,265,
297,298,299,300,
332,333,334,335
210,
228,229,230,231,
263,264,265,266,
298,299,300,301,
333,334,335,336
211,
229,230,231,232,
264,265,266,267,
299,300,301,302,
334,335,336,337
212,
230,231,232,233,
265,266,267,268,
300,301,302,303,
335,336,337,338
213,
231,232,233,234,
266,267,268,269,
301,302,303,304,
336,337,338,339
214,
232,233,234,235,
267,268,269,270,
302,303,304,305,
337,338,339,340
215,
233,234,235,236,
268,269,270,271,
303,304,305,306,
338,339,340,341
216,
234,235,236,237,
269,270,271,272,
304,305,306,307,
339,340,341,342
217,
235,236,237,238,
270,271,272,273,
305,306,307,308,
340,341,342,343
218,
236,237,238,239,
271,272,273,274,
306,307,308,309,
341,342,343,344
219,
237,238,239,240,
272,273,274,275,
307,308,309,310,
342,343,344,345
220,
238,239,240,241,
273,274,275,276,
308,309,310,311,
343,344,345,346
221,
239,240,241,242,
274,275,276,277,
309,310,311,312,
344,345,346,347
222,
240,241,242,243,
275,276,277,278,
310,311,312,313,
345,346,347,348
223,
241,242,243,244,
276,277,278,279,
311,312,313,314,
346,347,348,349
224,
242,243,244,245,
277,278,279,280,
312,313,314,315,
347,348,349,350
225,
246,247,248,249,
281,282,283,284,
316,317,318,319,
351,352,353,354
226,
247,248,249,250,
282,283,284,285,
317,318,319,320,
352,353,354,355
227,
248,249,250,251,
283,284,285,286,
318,319,320,321,
353,354,355,356
228,
249,250,251,252,
284,285,286,287,
319,320,321,322,
354,355,356,357
229,
250,251,252,253,
285,286,287,288,
320,321,322,323,
355,356,357,358
230,
251,252,253,254,
286,287,288,289,
321,322,323,324,
356,357,358,359
231,
252,253,254,255,
287,288,289,290,
322,323,324,325,
357,358,359,360
232,
253,254,255,256,
288,289,290,291,
323,324,325,326,
358,359,360,361
233,
254,255,256,257,
289,290,291,292,
324,325,326,327,
359,360,361,362
234,
255,256,257,258,
290,291,292,293,
325,326,327,328,
360,361,362,363
235,
256,257,258,259,
291,292,293,294,
326,327,328,329,
361,362,363,364
236,
257,258,259,260,
292,293,294,295,
327,328,329,330,
362,363,364,365
237,
258,259,260,261,
293,294,295,296,
328,329,330,331,
363,364,365,366
238,
259,260,261,262,
294,295,296,297,
329,330,331,332,
364,365,366,367
239,
260,261,262,263,
295,296,297,298,
330,331,332,333,
365,366,367,368
240,
261,262,263,264,
296,297,298,299,
331,332,333,334,
366,367,368,369
241,
262,263,264,265,
297,298,299,300,
332,333,334,335,
367,368,369,370
242,
263,264,265,266,
298,299,300,301,
333,334,335,336,
368,369,370,371
243,
264,265,266,267,
299,300,301,302,
334,335,336,337,
369,370,371,372
244,
265,266,267,268,
300,301,302,303,
335,336,337,338,
370,371,372,373
245,
266,267,268,269,
301,302,303,304,
336,337,338,339,
371,372,373,374
246,
267,268,269,270,
302,303,304,305,
337,338,339,340,
372,373,374,375
247,
268,269,270,271,
303,304,305,306,
338,339,340,341,
373,374,375,376
248,
269,270,271,272,
304,305,306,307,
339,340,341,342,
374,375,376,377
249,
270,271,272,273,
305,306,307,308,
340,341,342,343,
375,376,377,378
250,
271,272,273,274,
306,307,308,309,
341,342,343,344,
376,377,378,379
251,
272,273,274,275,
307,308,309,310,
342,343,344,345,
377,378,379,380
252,
273,274,275,276,
308,309,310,311,
343,344,345,346,
378,379,380,381
253,
274,275,276,277,
309,310,311,312,
344,345,346,347,
379,380,381,382
254,
275,276,277,278,
310,311,312,313,
345,346,347,348,
380,381,382,383
255,
276,277,278,279,
311,312,313,314,
346,347,348,349,
381,382,383,384
256,
277,278,279,280,
312,313,314,315,
347,348,349,350,
382,383,384,385
*UEL PROPERTY,ELSET=ELSET1
4, 4, 32, 8, 385, 3, 3, 39,
15, 4, 4, 1, -100, 0, 200000, 0.3,
0.4
*NSET, NSET=NSET_LEFT
1, 36, 71, 106, 141, 176, 211, 246, 281, 316,
351
**
*STEP, NAME=STEP-1, NLGEOM=NO
*STATIC
1., 1., 1., 1.
*BOUNDARY
NSET_LEFT, 1, 2, 0.
*END STEP