*HEADING

**
*NODE, NSET=ALLNODES
1,	0.00000000000000000000,	0.00000000000000000000,	0.000000000000000
2,	0.11930714071743120375,	0.00000000000000000000,	0.000000000000000
3,	0.36193767151251438063,	-0.01079543717652073180,	0.000000000000000
4,	0.73075278964669609927,	-0.06126357634392905205,	0.000000000000000
5,	1.10392612756956420839,	-0.14881011992725562409,	0.000000000000000
6,	1.47606716758759870523,	-0.27523165457861459293,	0.000000000000000
7,	1.84125293042505910890,	-0.44129083742692176706,	0.000000000000000
8,	2.19327884415367568849,	-0.64655238687477167847,	0.000000000000000
9,	2.52596444388414775872,	-0.88929417848311775874,	0.000000000000000
10,	2.83348666030629781076,	-1.16651333969370263333,	0.000000000000000
11,	3.11070582151688279637,	-1.47403555611585290741,	0.000000000000000
12,	3.35344761312522843255,	-1.80672115584632453356,	0.000000000000000
13,	3.55870916257307889907,	-2.15874706957494177928,	0.000000000000000
14,	3.72476834542138623974,	-2.52393283241240240500,	0.000000000000000
15,	3.85118988007274509755,	-2.89607387243043667979,	0.000000000000000
16,	3.93873642365607112836,	-3.26924721035330456687,	0.000000000000000
17,	3.98920456282347890564,	-3.63806232848748578590,	0.000000000000000
18,	4.00000000000000000000,	-3.88069285928256890728,	0.000000000000000
19,	4.00000000000000000000,	-4.00000000000000000000,	0.000000000000000
20,	0.00000000000000000000,	0.16666666666666668517,	0.000000000000000
21,	0.12427827158065750390,	0.16666666666666671293,	0.000000000000000
22,	0.37701840782553580622,	0.15542141960779093379,	0.000000000000000
23,	0.76120082254864185334,	0.10285044130840728660,	0.000000000000000
24,	1.14992304955162927271,	0.01165612507577541875,	0.000000000000000
25,	1.53756996623708208638,	-0.12003297351939018478,	0.000000000000000
26,	1.91797180252610299789,	-0.29301128898637679443,	0.000000000000000
27,	2.28466546266007863863,	-0.50682540299455391963,	0.000000000000000
28,	2.63121296237932034146,	-0.75968143591991410535,	0.000000000000000
29,	2.95154860448572708975,	-1.04845139551427335434,	0.000000000000000
30,	3.24031856408008600567,	-1.36878703762068010263,	0.000000000000000
31,	3.49317459700544619139,	-1.71533453733992136137,	0.000000000000000
32,	3.70698871101362303904,	-2.08202819747389744620,	0.000000000000000
33,	3.87996702648061031482,	-2.46243003376291902384,	0.000000000000000
34,	4.01165612507577584722,	-2.85007695044837117138,	0.000000000000000
35,	4.10285044130840770293,	-3.23879917745135958995,	0.000000000000000
36,	4.15542141960779076726,	-3.62298159217446436031,	0.000000000000000
37,	4.16666666666666607455,	-3.87572172841934259324,	0.000000000000000
38,	4.16666666666666696273,	-4.00000000000000000000,	0.000000000000000
39,	0.00000000000000000000,	0.50000000000000011102,	0.000000000000000
40,	0.13422053330711009034,	0.50000000000000022204,	0.000000000000000
41,	0.40717988045157871291,	0.48785513317641426845,	0.000000000000000
42,	0.82209688835253313943,	0.43107847661307996390,	0.000000000000000
43,	1.24191689351575984546,	0.33258861508183756861,	0.000000000000000
44,	1.66057556353604818256,	0.19036438859905868703,	0.000000000000000
45,	2.07140954672819077587,	0.00354780789471307798,	0.000000000000000
46,	2.46743869967288498302,	-0.22737143523411815216,	0.000000000000000
47,	2.84170999936966550692,	-0.50045595079350724266,	0.000000000000000
48,	3.18767249284458475955,	-0.81232750715541512943,	0.000000000000000
49,	3.49954404920649331245,	-1.15829000063033449308,	0.000000000000000
50,	3.77262856476588170906,	-1.53256130032711501698,	0.000000000000000
51,	4.00354780789471220714,	-1.92859045327180922413,	0.000000000000000
52,	4.19036438859905846499,	-2.33942443646395226153,	0.000000000000000
53,	4.33258861508183734657,	-2.75808310648424059863,	0.000000000000000
54,	4.43107847661307996390,	-3.17790311164746785977,	0.000000000000000
55,	4.48785513317641360231,	-3.59282011954842106505,	0.000000000000000
56,	4.49999999999999911182,	-3.86577946669288996517,	0.000000000000000
57,	4.50000000000000000000,	-4.00000000000000000000,	0.000000000000000
58,	0.00000000000000000000,	1.00000000000000000000,	0.000000000000000
59,	0.14913392589678900468,	1.00000000000000022204,	0.000000000000000
60,	0.45242208939064293416,	0.98650570352934929819,	0.000000000000000
61,	0.91344098705837017960,	0.92342052957008879943,	0.000000000000000
62,	1.37990765946195503844,	0.81398735009093059478,	0.000000000000000
63,	1.84508395948449788193,	0.65596043177673180047,	0.000000000000000
64,	2.30156616303132333101,	0.44838645321634790220,	0.000000000000000
65,	2.74159855519209427754,	0.19180951640653540191,	0.000000000000000
66,	3.15745555485518414329,	-0.11161772310389708740,	0.000000000000000
67,	3.54185832538287170834,	-0.45814167461712795859,	0.000000000000000
68,	3.88838227689610249627,	-0.84254444514481585671,	0.000000000000000
69,	4.19180951640653454149,	-1.25840144480790550041,	0.000000000000000
70,	4.44838645321634729157,	-1.69843383696867711308,	0.000000000000000
71,	4.65596043177673202251,	-2.15491604051550256216,	0.000000000000000
72,	4.81398735009093048376,	-2.62009234053804496156,	0.000000000000000
73,	4.92342052957008835534,	-3.08655901294163070858,	0.000000000000000
74,	4.98650570352934874307,	-3.54757791060935723237,	0.000000000000000
75,	4.99999999999999911182,	-3.85086607410321057898,	0.000000000000000
76,	5.00000000000000000000,	-4.00000000000000000000,	0.000000000000000
77,	0.00000000000000000000,	1.50000000000000000000,	0.000000000000000
78,	0.16404731848646789127,	1.49999999999999977796,	0.000000000000000
79,	0.49766429832970715541,	1.48515627388228432793,	0.000000000000000
80,	1.00478508576420710874,	1.41576258252709763497,	0.000000000000000
81,	1.51789842540815045346,	1.29538608510002362095,	0.000000000000000
82,	2.02959235543294802540,	1.12155647495440513595,	0.000000000000000
83,	2.53172277933445588616,	0.89322509853798270907,	0.000000000000000
84,	3.01575841071130401616,	0.61099046804718892822,	0.000000000000000
85,	3.47320111034070277967,	0.27722050458571312337,	0.000000000000000
86,	3.89604415792115910122,	-0.10395584207884077388,	0.000000000000000
87,	4.27722050458571345644,	-0.52679888965929733136,	0.000000000000000
88,	4.61099046804718870618,	-0.98424158928869609486,	0.000000000000000
89,	4.89322509853798237600,	-1.46827722066554455793,	0.000000000000000
90,	5.12155647495440469186,	-1.97040764456705264074,	0.000000000000000
91,	5.29538608510002362095,	-2.48210157459185021267,	0.000000000000000
92,	5.41576258252709674679,	-2.99521491423579311331,	0.000000000000000
93,	5.48515627388228388384,	-3.50233570167029295561,	0.000000000000000
94,	5.49999999999999911182,	-3.83595268151353252506,	0.000000000000000
95,	5.50000000000000000000,	-4.00000000000000000000,	0.000000000000000
96,	0.00000000000000000000,	1.83333333333333325932,	0.000000000000000
97,	0.17398958021292049159,	1.83333333333333303727,	0.000000000000000
98,	0.52782577095575000659,	1.81758998745090738502,	0.000000000000000
99,	1.06568115156809839483,	1.74399061783177011797,	0.000000000000000
100,	1.60989226937228102621,	1.61631857510608556439,	0.000000000000000
101,	2.15259795273191434362,	1.43195383707285373021,	0.000000000000000
102,	2.68516052353654410823,	1.18978419541907243229,	0.000000000000000
103,	3.19853164772411036054,	0.89044443580762444590,	0.000000000000000
104,	3.68369814733104838922,	0.53644598971211987504,	0.000000000000000
105,	4.13216804628001721511,	0.13216804628001727062,	0.000000000000000
106,	4.53644598971212076322,	-0.31630185266895183283,	0.000000000000000
107,	4.89044443580762422386,	-0.80146835227588986150,	0.000000000000000
108,	5.18978419541907243229,	-1.31483947646345633586,	0.000000000000000
109,	5.43195383707285373021,	-1.84740204726808632252,	0.000000000000000
110,	5.61631857510608512030,	-2.39010773062772008402,	0.000000000000000
111,	5.74399061783177078411,	-2.93431884843190227130,	0.000000000000000
112,	5.81758998745090671889,	-3.47217422904424966035,	0.000000000000000
113,	5.83333333333333214910,	-3.82601041978707945290,	0.000000000000000
114,	5.83333333333333303727,	-4.00000000000000000000,	0.000000000000000
115,	0.00000000000000000000,	2.00000000000000000000,	0.000000000000000
116,	0.17896071107614675011,	2.00000000000000000000,	0.000000000000000
117,	0.54290650726877132115,	1.98380684423521880255,	0.000000000000000
118,	1.09612918447004403788,	1.90810463548410647050,	0.000000000000000
119,	1.65588919135434609053,	1.77678482010911653610,	0.000000000000000
120,	2.21410075138139772477,	1.58715251813207802734,	0.000000000000000
121,	2.76187939563758844130,	1.33806374385961746043,	0.000000000000000
122,	3.28991826623051331069,	1.03017141968784220474,	0.000000000000000
123,	3.78894666582622097195,	0.66605873227532330638,	0.000000000000000
124,	4.25022999045944605001,	0.25022999045944621654,	0.000000000000000
125,	4.66605873227532352843,	-0.21105333417377911132,	0.000000000000000
126,	5.03017141968784287087,	-0.71008173376948691136,	0.000000000000000
127,	5.33806374385961746043,	-1.23812060436241244687,	0.000000000000000
128,	5.58715251813207824938,	-1.78589924861860316341,	0.000000000000000
129,	5.77678482010911675815,	-2.34411080864565457560,	0.000000000000000
130,	5.90810463548410602641,	-2.90387081552995640621,	0.000000000000000
131,	5.98380684423521813642,	-3.45709349273122867885,	0.000000000000000
132,	5.99999999999999911182,	-3.82103928892385313887,	0.000000000000000
133,	6.00000000000000000000,	-4.00000000000000000000,	0.000000000000000
134,	0.00000000000000000000,	0.00000000000000000000,	0.166666666666667
135,	0.11930714071743120375,	0.00000000000000000000,	0.166666666666667
136,	0.36193767151251438063,	-0.01079543717652073180,	0.166666666666667
137,	0.73075278964669609927,	-0.06126357634392905205,	0.166666666666667
138,	1.10392612756956420839,	-0.14881011992725562409,	0.166666666666667
139,	1.47606716758759870523,	-0.27523165457861459293,	0.166666666666667
140,	1.84125293042505910890,	-0.44129083742692176706,	0.166666666666667
141,	2.19327884415367568849,	-0.64655238687477167847,	0.166666666666667
142,	2.52596444388414775872,	-0.88929417848311775874,	0.166666666666667
143,	2.83348666030629781076,	-1.16651333969370263333,	0.166666666666667
144,	3.11070582151688279637,	-1.47403555611585290741,	0.166666666666667
145,	3.35344761312522843255,	-1.80672115584632453356,	0.166666666666667
146,	3.55870916257307889907,	-2.15874706957494177928,	0.166666666666667
147,	3.72476834542138623974,	-2.52393283241240240500,	0.166666666666667
148,	3.85118988007274509755,	-2.89607387243043667979,	0.166666666666667
149,	3.93873642365607112836,	-3.26924721035330456687,	0.166666666666667
150,	3.98920456282347890564,	-3.63806232848748578590,	0.166666666666667
151,	4.00000000000000000000,	-3.88069285928256890728,	0.166666666666667
152,	4.00000000000000000000,	-4.00000000000000000000,	0.166666666666667
153,	0.00000000000000000000,	0.16666666666666668517,	0.166666666666667
154,	0.12427827158065750390,	0.16666666666666671293,	0.166666666666667
155,	0.37701840782553580622,	0.15542141960779093379,	0.166666666666667
156,	0.76120082254864185334,	0.10285044130840728660,	0.166666666666667
157,	1.14992304955162927271,	0.01165612507577541875,	0.166666666666667
158,	1.53756996623708208638,	-0.12003297351939018478,	0.166666666666667
159,	1.91797180252610299789,	-0.29301128898637679443,	0.166666666666667
160,	2.28466546266007863863,	-0.50682540299455391963,	0.166666666666667
161,	2.63121296237932034146,	-0.75968143591991410535,	0.166666666666667
162,	2.95154860448572708975,	-1.04845139551427335434,	0.166666666666667
163,	3.24031856408008600567,	-1.36878703762068010263,	0.166666666666667
164,	3.49317459700544619139,	-1.71533453733992136137,	0.166666666666667
165,	3.70698871101362303904,	-2.08202819747389744620,	0.166666666666667
166,	3.87996702648061031482,	-2.46243003376291902384,	0.166666666666667
167,	4.01165612507577584722,	-2.85007695044837117138,	0.166666666666667
168,	4.10285044130840770293,	-3.23879917745135958995,	0.166666666666667
169,	4.15542141960779076726,	-3.62298159217446436031,	0.166666666666667
170,	4.16666666666666607455,	-3.87572172841934259324,	0.166666666666667
171,	4.16666666666666696273,	-4.00000000000000000000,	0.166666666666667
172,	0.00000000000000000000,	0.50000000000000011102,	0.166666666666667
173,	0.13422053330711009034,	0.50000000000000022204,	0.166666666666667
174,	0.40717988045157871291,	0.48785513317641426845,	0.166666666666667
175,	0.82209688835253313943,	0.43107847661307996390,	0.166666666666667
176,	1.24191689351575984546,	0.33258861508183756861,	0.166666666666667
177,	1.66057556353604818256,	0.19036438859905868703,	0.166666666666667
178,	2.07140954672819077587,	0.00354780789471307798,	0.166666666666667
179,	2.46743869967288498302,	-0.22737143523411815216,	0.166666666666667
180,	2.84170999936966550692,	-0.50045595079350724266,	0.166666666666667
181,	3.18767249284458475955,	-0.81232750715541512943,	0.166666666666667
182,	3.49954404920649331245,	-1.15829000063033449308,	0.166666666666667
183,	3.77262856476588170906,	-1.53256130032711501698,	0.166666666666667
184,	4.00354780789471220714,	-1.92859045327180922413,	0.166666666666667
185,	4.19036438859905846499,	-2.33942443646395226153,	0.166666666666667
186,	4.33258861508183734657,	-2.75808310648424059863,	0.166666666666667
187,	4.43107847661307996390,	-3.17790311164746785977,	0.166666666666667
188,	4.48785513317641360231,	-3.59282011954842106505,	0.166666666666667
189,	4.49999999999999911182,	-3.86577946669288996517,	0.166666666666667
190,	4.50000000000000000000,	-4.00000000000000000000,	0.166666666666667
191,	0.00000000000000000000,	1.00000000000000000000,	0.166666666666667
192,	0.14913392589678900468,	1.00000000000000022204,	0.166666666666667
193,	0.45242208939064293416,	0.98650570352934929819,	0.166666666666667
194,	0.91344098705837017960,	0.92342052957008879943,	0.166666666666667
195,	1.37990765946195503844,	0.81398735009093059478,	0.166666666666667
196,	1.84508395948449788193,	0.65596043177673180047,	0.166666666666667
197,	2.30156616303132333101,	0.44838645321634790220,	0.166666666666667
198,	2.74159855519209427754,	0.19180951640653540191,	0.166666666666667
199,	3.15745555485518414329,	-0.11161772310389708740,	0.166666666666667
200,	3.54185832538287170834,	-0.45814167461712795859,	0.166666666666667
201,	3.88838227689610249627,	-0.84254444514481585671,	0.166666666666667
202,	4.19180951640653454149,	-1.25840144480790550041,	0.166666666666667
203,	4.44838645321634729157,	-1.69843383696867711308,	0.166666666666667
204,	4.65596043177673202251,	-2.15491604051550256216,	0.166666666666667
205,	4.81398735009093048376,	-2.62009234053804496156,	0.166666666666667
206,	4.92342052957008835534,	-3.08655901294163070858,	0.166666666666667
207,	4.98650570352934874307,	-3.54757791060935723237,	0.166666666666667
208,	4.99999999999999911182,	-3.85086607410321057898,	0.166666666666667
209,	5.00000000000000000000,	-4.00000000000000000000,	0.166666666666667
210,	0.00000000000000000000,	1.50000000000000000000,	0.166666666666667
211,	0.16404731848646789127,	1.49999999999999977796,	0.166666666666667
212,	0.49766429832970715541,	1.48515627388228432793,	0.166666666666667
213,	1.00478508576420710874,	1.41576258252709763497,	0.166666666666667
214,	1.51789842540815045346,	1.29538608510002362095,	0.166666666666667
215,	2.02959235543294802540,	1.12155647495440513595,	0.166666666666667
216,	2.53172277933445588616,	0.89322509853798270907,	0.166666666666667
217,	3.01575841071130401616,	0.61099046804718892822,	0.166666666666667
218,	3.47320111034070277967,	0.27722050458571312337,	0.166666666666667
219,	3.89604415792115910122,	-0.10395584207884077388,	0.166666666666667
220,	4.27722050458571345644,	-0.52679888965929733136,	0.166666666666667
221,	4.61099046804718870618,	-0.98424158928869609486,	0.166666666666667
222,	4.89322509853798237600,	-1.46827722066554455793,	0.166666666666667
223,	5.12155647495440469186,	-1.97040764456705264074,	0.166666666666667
224,	5.29538608510002362095,	-2.48210157459185021267,	0.166666666666667
225,	5.41576258252709674679,	-2.99521491423579311331,	0.166666666666667
226,	5.48515627388228388384,	-3.50233570167029295561,	0.166666666666667
227,	5.49999999999999911182,	-3.83595268151353252506,	0.166666666666667
228,	5.50000000000000000000,	-4.00000000000000000000,	0.166666666666667
229,	0.00000000000000000000,	1.83333333333333325932,	0.166666666666667
230,	0.17398958021292049159,	1.83333333333333303727,	0.166666666666667
231,	0.52782577095575000659,	1.81758998745090738502,	0.166666666666667
232,	1.06568115156809839483,	1.74399061783177011797,	0.166666666666667
233,	1.60989226937228102621,	1.61631857510608556439,	0.166666666666667
234,	2.15259795273191434362,	1.43195383707285373021,	0.166666666666667
235,	2.68516052353654410823,	1.18978419541907243229,	0.166666666666667
236,	3.19853164772411036054,	0.89044443580762444590,	0.166666666666667
237,	3.68369814733104838922,	0.53644598971211987504,	0.166666666666667
238,	4.13216804628001721511,	0.13216804628001727062,	0.166666666666667
239,	4.53644598971212076322,	-0.31630185266895183283,	0.166666666666667
240,	4.89044443580762422386,	-0.80146835227588986150,	0.166666666666667
241,	5.18978419541907243229,	-1.31483947646345633586,	0.166666666666667
242,	5.43195383707285373021,	-1.84740204726808632252,	0.166666666666667
243,	5.61631857510608512030,	-2.39010773062772008402,	0.166666666666667
244,	5.74399061783177078411,	-2.93431884843190227130,	0.166666666666667
245,	5.81758998745090671889,	-3.47217422904424966035,	0.166666666666667
246,	5.83333333333333214910,	-3.82601041978707945290,	0.166666666666667
247,	5.83333333333333303727,	-4.00000000000000000000,	0.166666666666667
248,	0.00000000000000000000,	2.00000000000000000000,	0.166666666666667
249,	0.17896071107614675011,	2.00000000000000000000,	0.166666666666667
250,	0.54290650726877132115,	1.98380684423521880255,	0.166666666666667
251,	1.09612918447004403788,	1.90810463548410647050,	0.166666666666667
252,	1.65588919135434609053,	1.77678482010911653610,	0.166666666666667
253,	2.21410075138139772477,	1.58715251813207802734,	0.166666666666667
254,	2.76187939563758844130,	1.33806374385961746043,	0.166666666666667
255,	3.28991826623051331069,	1.03017141968784220474,	0.166666666666667
256,	3.78894666582622097195,	0.66605873227532330638,	0.166666666666667
257,	4.25022999045944605001,	0.25022999045944621654,	0.166666666666667
258,	4.66605873227532352843,	-0.21105333417377911132,	0.166666666666667
259,	5.03017141968784287087,	-0.71008173376948691136,	0.166666666666667
260,	5.33806374385961746043,	-1.23812060436241244687,	0.166666666666667
261,	5.58715251813207824938,	-1.78589924861860316341,	0.166666666666667
262,	5.77678482010911675815,	-2.34411080864565457560,	0.166666666666667
263,	5.90810463548410602641,	-2.90387081552995640621,	0.166666666666667
264,	5.98380684423521813642,	-3.45709349273122867885,	0.166666666666667
265,	5.99999999999999911182,	-3.82103928892385313887,	0.166666666666667
266,	6.00000000000000000000,	-4.00000000000000000000,	0.166666666666667
267,	0.00000000000000000000,	0.00000000000000000000,	0.500000000000000
268,	0.11930714071743120375,	0.00000000000000000000,	0.500000000000000
269,	0.36193767151251438063,	-0.01079543717652073180,	0.500000000000000
270,	0.73075278964669609927,	-0.06126357634392905205,	0.500000000000000
271,	1.10392612756956420839,	-0.14881011992725562409,	0.500000000000000
272,	1.47606716758759870523,	-0.27523165457861459293,	0.500000000000000
273,	1.84125293042505910890,	-0.44129083742692176706,	0.500000000000000
274,	2.19327884415367568849,	-0.64655238687477167847,	0.500000000000000
275,	2.52596444388414775872,	-0.88929417848311775874,	0.500000000000000
276,	2.83348666030629781076,	-1.16651333969370263333,	0.500000000000000
277,	3.11070582151688279637,	-1.47403555611585290741,	0.500000000000000
278,	3.35344761312522843255,	-1.80672115584632453356,	0.500000000000000
279,	3.55870916257307889907,	-2.15874706957494177928,	0.500000000000000
280,	3.72476834542138623974,	-2.52393283241240240500,	0.500000000000000
281,	3.85118988007274509755,	-2.89607387243043667979,	0.500000000000000
282,	3.93873642365607112836,	-3.26924721035330456687,	0.500000000000000
283,	3.98920456282347890564,	-3.63806232848748578590,	0.500000000000000
284,	4.00000000000000000000,	-3.88069285928256890728,	0.500000000000000
285,	4.00000000000000000000,	-4.00000000000000000000,	0.500000000000000
286,	0.00000000000000000000,	0.16666666666666668517,	0.500000000000000
287,	0.12427827158065750390,	0.16666666666666671293,	0.500000000000000
288,	0.37701840782553580622,	0.15542141960779093379,	0.500000000000000
289,	0.76120082254864185334,	0.10285044130840728660,	0.500000000000000
290,	1.14992304955162927271,	0.01165612507577541875,	0.500000000000000
291,	1.53756996623708208638,	-0.12003297351939018478,	0.500000000000000
292,	1.91797180252610299789,	-0.29301128898637679443,	0.500000000000000
293,	2.28466546266007863863,	-0.50682540299455391963,	0.500000000000000
294,	2.63121296237932034146,	-0.75968143591991410535,	0.500000000000000
295,	2.95154860448572708975,	-1.04845139551427335434,	0.500000000000000
296,	3.24031856408008600567,	-1.36878703762068010263,	0.500000000000000
297,	3.49317459700544619139,	-1.71533453733992136137,	0.500000000000000
298,	3.70698871101362303904,	-2.08202819747389744620,	0.500000000000000
299,	3.87996702648061031482,	-2.46243003376291902384,	0.500000000000000
300,	4.01165612507577584722,	-2.85007695044837117138,	0.500000000000000
301,	4.10285044130840770293,	-3.23879917745135958995,	0.500000000000000
302,	4.15542141960779076726,	-3.62298159217446436031,	0.500000000000000
303,	4.16666666666666607455,	-3.87572172841934259324,	0.500000000000000
304,	4.16666666666666696273,	-4.00000000000000000000,	0.500000000000000
305,	0.00000000000000000000,	0.50000000000000011102,	0.500000000000000
306,	0.13422053330711009034,	0.50000000000000022204,	0.500000000000000
307,	0.40717988045157871291,	0.48785513317641426845,	0.500000000000000
308,	0.82209688835253313943,	0.43107847661307996390,	0.500000000000000
309,	1.24191689351575984546,	0.33258861508183756861,	0.500000000000000
310,	1.66057556353604818256,	0.19036438859905868703,	0.500000000000000
311,	2.07140954672819077587,	0.00354780789471307798,	0.500000000000000
312,	2.46743869967288498302,	-0.22737143523411815216,	0.500000000000000
313,	2.84170999936966550692,	-0.50045595079350724266,	0.500000000000000
314,	3.18767249284458475955,	-0.81232750715541512943,	0.500000000000000
315,	3.49954404920649331245,	-1.15829000063033449308,	0.500000000000000
316,	3.77262856476588170906,	-1.53256130032711501698,	0.500000000000000
317,	4.00354780789471220714,	-1.92859045327180922413,	0.500000000000000
318,	4.19036438859905846499,	-2.33942443646395226153,	0.500000000000000
319,	4.33258861508183734657,	-2.75808310648424059863,	0.500000000000000
320,	4.43107847661307996390,	-3.17790311164746785977,	0.500000000000000
321,	4.48785513317641360231,	-3.59282011954842106505,	0.500000000000000
322,	4.49999999999999911182,	-3.86577946669288996517,	0.500000000000000
323,	4.50000000000000000000,	-4.00000000000000000000,	0.500000000000000
324,	0.00000000000000000000,	1.00000000000000000000,	0.500000000000000
325,	0.14913392589678900468,	1.00000000000000022204,	0.500000000000000
326,	0.45242208939064293416,	0.98650570352934929819,	0.500000000000000
327,	0.91344098705837017960,	0.92342052957008879943,	0.500000000000000
328,	1.37990765946195503844,	0.81398735009093059478,	0.500000000000000
329,	1.84508395948449788193,	0.65596043177673180047,	0.500000000000000
330,	2.30156616303132333101,	0.44838645321634790220,	0.500000000000000
331,	2.74159855519209427754,	0.19180951640653540191,	0.500000000000000
332,	3.15745555485518414329,	-0.11161772310389708740,	0.500000000000000
333,	3.54185832538287170834,	-0.45814167461712795859,	0.500000000000000
334,	3.88838227689610249627,	-0.84254444514481585671,	0.500000000000000
335,	4.19180951640653454149,	-1.25840144480790550041,	0.500000000000000
336,	4.44838645321634729157,	-1.69843383696867711308,	0.500000000000000
337,	4.65596043177673202251,	-2.15491604051550256216,	0.500000000000000
338,	4.81398735009093048376,	-2.62009234053804496156,	0.500000000000000
339,	4.92342052957008835534,	-3.08655901294163070858,	0.500000000000000
340,	4.98650570352934874307,	-3.54757791060935723237,	0.500000000000000
341,	4.99999999999999911182,	-3.85086607410321057898,	0.500000000000000
342,	5.00000000000000000000,	-4.00000000000000000000,	0.500000000000000
343,	0.00000000000000000000,	1.50000000000000000000,	0.500000000000000
344,	0.16404731848646789127,	1.49999999999999977796,	0.500000000000000
345,	0.49766429832970715541,	1.48515627388228432793,	0.500000000000000
346,	1.00478508576420710874,	1.41576258252709763497,	0.500000000000000
347,	1.51789842540815045346,	1.29538608510002362095,	0.500000000000000
348,	2.02959235543294802540,	1.12155647495440513595,	0.500000000000000
349,	2.53172277933445588616,	0.89322509853798270907,	0.500000000000000
350,	3.01575841071130401616,	0.61099046804718892822,	0.500000000000000
351,	3.47320111034070277967,	0.27722050458571312337,	0.500000000000000
352,	3.89604415792115910122,	-0.10395584207884077388,	0.500000000000000
353,	4.27722050458571345644,	-0.52679888965929733136,	0.500000000000000
354,	4.61099046804718870618,	-0.98424158928869609486,	0.500000000000000
355,	4.89322509853798237600,	-1.46827722066554455793,	0.500000000000000
356,	5.12155647495440469186,	-1.97040764456705264074,	0.500000000000000
357,	5.29538608510002362095,	-2.48210157459185021267,	0.500000000000000
358,	5.41576258252709674679,	-2.99521491423579311331,	0.500000000000000
359,	5.48515627388228388384,	-3.50233570167029295561,	0.500000000000000
360,	5.49999999999999911182,	-3.83595268151353252506,	0.500000000000000
361,	5.50000000000000000000,	-4.00000000000000000000,	0.500000000000000
362,	0.00000000000000000000,	1.83333333333333325932,	0.500000000000000
363,	0.17398958021292049159,	1.83333333333333303727,	0.500000000000000
364,	0.52782577095575000659,	1.81758998745090738502,	0.500000000000000
365,	1.06568115156809839483,	1.74399061783177011797,	0.500000000000000
366,	1.60989226937228102621,	1.61631857510608556439,	0.500000000000000
367,	2.15259795273191434362,	1.43195383707285373021,	0.500000000000000
368,	2.68516052353654410823,	1.18978419541907243229,	0.500000000000000
369,	3.19853164772411036054,	0.89044443580762444590,	0.500000000000000
370,	3.68369814733104838922,	0.53644598971211987504,	0.500000000000000
371,	4.13216804628001721511,	0.13216804628001727062,	0.500000000000000
372,	4.53644598971212076322,	-0.31630185266895183283,	0.500000000000000
373,	4.89044443580762422386,	-0.80146835227588986150,	0.500000000000000
374,	5.18978419541907243229,	-1.31483947646345633586,	0.500000000000000
375,	5.43195383707285373021,	-1.84740204726808632252,	0.500000000000000
376,	5.61631857510608512030,	-2.39010773062772008402,	0.500000000000000
377,	5.74399061783177078411,	-2.93431884843190227130,	0.500000000000000
378,	5.81758998745090671889,	-3.47217422904424966035,	0.500000000000000
379,	5.83333333333333214910,	-3.82601041978707945290,	0.500000000000000
380,	5.83333333333333303727,	-4.00000000000000000000,	0.500000000000000
381,	0.00000000000000000000,	2.00000000000000000000,	0.500000000000000
382,	0.17896071107614675011,	2.00000000000000000000,	0.500000000000000
383,	0.54290650726877132115,	1.98380684423521880255,	0.500000000000000
384,	1.09612918447004403788,	1.90810463548410647050,	0.500000000000000
385,	1.65588919135434609053,	1.77678482010911653610,	0.500000000000000
386,	2.21410075138139772477,	1.58715251813207802734,	0.500000000000000
387,	2.76187939563758844130,	1.33806374385961746043,	0.500000000000000
388,	3.28991826623051331069,	1.03017141968784220474,	0.500000000000000
389,	3.78894666582622097195,	0.66605873227532330638,	0.500000000000000
390,	4.25022999045944605001,	0.25022999045944621654,	0.500000000000000
391,	4.66605873227532352843,	-0.21105333417377911132,	0.500000000000000
392,	5.03017141968784287087,	-0.71008173376948691136,	0.500000000000000
393,	5.33806374385961746043,	-1.23812060436241244687,	0.500000000000000
394,	5.58715251813207824938,	-1.78589924861860316341,	0.500000000000000
395,	5.77678482010911675815,	-2.34411080864565457560,	0.500000000000000
396,	5.90810463548410602641,	-2.90387081552995640621,	0.500000000000000
397,	5.98380684423521813642,	-3.45709349273122867885,	0.500000000000000
398,	5.99999999999999911182,	-3.82103928892385313887,	0.500000000000000
399,	6.00000000000000000000,	-4.00000000000000000000,	0.500000000000000
400,	0.00000000000000000000,	0.00000000000000000000,	1.000000000000000
401,	0.11930714071743120375,	0.00000000000000000000,	1.000000000000000
402,	0.36193767151251438063,	-0.01079543717652073180,	1.000000000000000
403,	0.73075278964669609927,	-0.06126357634392905205,	1.000000000000000
404,	1.10392612756956420839,	-0.14881011992725562409,	1.000000000000000
405,	1.47606716758759870523,	-0.27523165457861459293,	1.000000000000000
406,	1.84125293042505910890,	-0.44129083742692176706,	1.000000000000000
407,	2.19327884415367568849,	-0.64655238687477167847,	1.000000000000000
408,	2.52596444388414775872,	-0.88929417848311775874,	1.000000000000000
409,	2.83348666030629781076,	-1.16651333969370263333,	1.000000000000000
410,	3.11070582151688279637,	-1.47403555611585290741,	1.000000000000000
411,	3.35344761312522843255,	-1.80672115584632453356,	1.000000000000000
412,	3.55870916257307889907,	-2.15874706957494177928,	1.000000000000000
413,	3.72476834542138623974,	-2.52393283241240240500,	1.000000000000000
414,	3.85118988007274509755,	-2.89607387243043667979,	1.000000000000000
415,	3.93873642365607112836,	-3.26924721035330456687,	1.000000000000000
416,	3.98920456282347890564,	-3.63806232848748578590,	1.000000000000000
417,	4.00000000000000000000,	-3.88069285928256890728,	1.000000000000000
418,	4.00000000000000000000,	-4.00000000000000000000,	1.000000000000000
419,	0.00000000000000000000,	0.16666666666666668517,	1.000000000000000
420,	0.12427827158065750390,	0.16666666666666671293,	1.000000000000000
421,	0.37701840782553580622,	0.15542141960779093379,	1.000000000000000
422,	0.76120082254864185334,	0.10285044130840728660,	1.000000000000000
423,	1.14992304955162927271,	0.01165612507577541875,	1.000000000000000
424,	1.53756996623708208638,	-0.12003297351939018478,	1.000000000000000
425,	1.91797180252610299789,	-0.29301128898637679443,	1.000000000000000
426,	2.28466546266007863863,	-0.50682540299455391963,	1.000000000000000
427,	2.63121296237932034146,	-0.75968143591991410535,	1.000000000000000
428,	2.95154860448572708975,	-1.04845139551427335434,	1.000000000000000
429,	3.24031856408008600567,	-1.36878703762068010263,	1.000000000000000
430,	3.49317459700544619139,	-1.71533453733992136137,	1.000000000000000
431,	3.70698871101362303904,	-2.08202819747389744620,	1.000000000000000
432,	3.87996702648061031482,	-2.46243003376291902384,	1.000000000000000
433,	4.01165612507577584722,	-2.85007695044837117138,	1.000000000000000
434,	4.10285044130840770293,	-3.23879917745135958995,	1.000000000000000
435,	4.15542141960779076726,	-3.62298159217446436031,	1.000000000000000
436,	4.16666666666666607455,	-3.87572172841934259324,	1.000000000000000
437,	4.16666666666666696273,	-4.00000000000000000000,	1.000000000000000
438,	0.00000000000000000000,	0.50000000000000011102,	1.000000000000000
439,	0.13422053330711009034,	0.50000000000000022204,	1.000000000000000
440,	0.40717988045157871291,	0.48785513317641426845,	1.000000000000000
441,	0.82209688835253313943,	0.43107847661307996390,	1.000000000000000
442,	1.24191689351575984546,	0.33258861508183756861,	1.000000000000000
443,	1.66057556353604818256,	0.19036438859905868703,	1.000000000000000
444,	2.07140954672819077587,	0.00354780789471307798,	1.000000000000000
445,	2.46743869967288498302,	-0.22737143523411815216,	1.000000000000000
446,	2.84170999936966550692,	-0.50045595079350724266,	1.000000000000000
447,	3.18767249284458475955,	-0.81232750715541512943,	1.000000000000000
448,	3.49954404920649331245,	-1.15829000063033449308,	1.000000000000000
449,	3.77262856476588170906,	-1.53256130032711501698,	1.000000000000000
450,	4.00354780789471220714,	-1.92859045327180922413,	1.000000000000000
451,	4.19036438859905846499,	-2.33942443646395226153,	1.000000000000000
452,	4.33258861508183734657,	-2.75808310648424059863,	1.000000000000000
453,	4.43107847661307996390,	-3.17790311164746785977,	1.000000000000000
454,	4.48785513317641360231,	-3.59282011954842106505,	1.000000000000000
455,	4.49999999999999911182,	-3.86577946669288996517,	1.000000000000000
456,	4.50000000000000000000,	-4.00000000000000000000,	1.000000000000000
457,	0.00000000000000000000,	1.00000000000000000000,	1.000000000000000
458,	0.14913392589678900468,	1.00000000000000022204,	1.000000000000000
459,	0.45242208939064293416,	0.98650570352934929819,	1.000000000000000
460,	0.91344098705837017960,	0.92342052957008879943,	1.000000000000000
461,	1.37990765946195503844,	0.81398735009093059478,	1.000000000000000
462,	1.84508395948449788193,	0.65596043177673180047,	1.000000000000000
463,	2.30156616303132333101,	0.44838645321634790220,	1.000000000000000
464,	2.74159855519209427754,	0.19180951640653540191,	1.000000000000000
465,	3.15745555485518414329,	-0.11161772310389708740,	1.000000000000000
466,	3.54185832538287170834,	-0.45814167461712795859,	1.000000000000000
467,	3.88838227689610249627,	-0.84254444514481585671,	1.000000000000000
468,	4.19180951640653454149,	-1.25840144480790550041,	1.000000000000000
469,	4.44838645321634729157,	-1.69843383696867711308,	1.000000000000000
470,	4.65596043177673202251,	-2.15491604051550256216,	1.000000000000000
471,	4.81398735009093048376,	-2.62009234053804496156,	1.000000000000000
472,	4.92342052957008835534,	-3.08655901294163070858,	1.000000000000000
473,	4.98650570352934874307,	-3.54757791060935723237,	1.000000000000000
474,	4.99999999999999911182,	-3.85086607410321057898,	1.000000000000000
475,	5.00000000000000000000,	-4.00000000000000000000,	1.000000000000000
476,	0.00000000000000000000,	1.50000000000000000000,	1.000000000000000
477,	0.16404731848646789127,	1.49999999999999977796,	1.000000000000000
478,	0.49766429832970715541,	1.48515627388228432793,	1.000000000000000
479,	1.00478508576420710874,	1.41576258252709763497,	1.000000000000000
480,	1.51789842540815045346,	1.29538608510002362095,	1.000000000000000
481,	2.02959235543294802540,	1.12155647495440513595,	1.000000000000000
482,	2.53172277933445588616,	0.89322509853798270907,	1.000000000000000
483,	3.01575841071130401616,	0.61099046804718892822,	1.000000000000000
484,	3.47320111034070277967,	0.27722050458571312337,	1.000000000000000
485,	3.89604415792115910122,	-0.10395584207884077388,	1.000000000000000
486,	4.27722050458571345644,	-0.52679888965929733136,	1.000000000000000
487,	4.61099046804718870618,	-0.98424158928869609486,	1.000000000000000
488,	4.89322509853798237600,	-1.46827722066554455793,	1.000000000000000
489,	5.12155647495440469186,	-1.97040764456705264074,	1.000000000000000
490,	5.29538608510002362095,	-2.48210157459185021267,	1.000000000000000
491,	5.41576258252709674679,	-2.99521491423579311331,	1.000000000000000
492,	5.48515627388228388384,	-3.50233570167029295561,	1.000000000000000
493,	5.49999999999999911182,	-3.83595268151353252506,	1.000000000000000
494,	5.50000000000000000000,	-4.00000000000000000000,	1.000000000000000
495,	0.00000000000000000000,	1.83333333333333325932,	1.000000000000000
496,	0.17398958021292049159,	1.83333333333333303727,	1.000000000000000
497,	0.52782577095575000659,	1.81758998745090738502,	1.000000000000000
498,	1.06568115156809839483,	1.74399061783177011797,	1.000000000000000
499,	1.60989226937228102621,	1.61631857510608556439,	1.000000000000000
500,	2.15259795273191434362,	1.43195383707285373021,	1.000000000000000
501,	2.68516052353654410823,	1.18978419541907243229,	1.000000000000000
502,	3.19853164772411036054,	0.89044443580762444590,	1.000000000000000
503,	3.68369814733104838922,	0.53644598971211987504,	1.000000000000000
504,	4.13216804628001721511,	0.13216804628001727062,	1.000000000000000
505,	4.53644598971212076322,	-0.31630185266895183283,	1.000000000000000
506,	4.89044443580762422386,	-0.80146835227588986150,	1.000000000000000
507,	5.18978419541907243229,	-1.31483947646345633586,	1.000000000000000
508,	5.43195383707285373021,	-1.84740204726808632252,	1.000000000000000
509,	5.61631857510608512030,	-2.39010773062772008402,	1.000000000000000
510,	5.74399061783177078411,	-2.93431884843190227130,	1.000000000000000
511,	5.81758998745090671889,	-3.47217422904424966035,	1.000000000000000
512,	5.83333333333333214910,	-3.82601041978707945290,	1.000000000000000
513,	5.83333333333333303727,	-4.00000000000000000000,	1.000000000000000
514,	0.00000000000000000000,	2.00000000000000000000,	1.000000000000000
515,	0.17896071107614675011,	2.00000000000000000000,	1.000000000000000
516,	0.54290650726877132115,	1.98380684423521880255,	1.000000000000000
517,	1.09612918447004403788,	1.90810463548410647050,	1.000000000000000
518,	1.65588919135434609053,	1.77678482010911653610,	1.000000000000000
519,	2.21410075138139772477,	1.58715251813207802734,	1.000000000000000
520,	2.76187939563758844130,	1.33806374385961746043,	1.000000000000000
521,	3.28991826623051331069,	1.03017141968784220474,	1.000000000000000
522,	3.78894666582622097195,	0.66605873227532330638,	1.000000000000000
523,	4.25022999045944605001,	0.25022999045944621654,	1.000000000000000
524,	4.66605873227532352843,	-0.21105333417377911132,	1.000000000000000
525,	5.03017141968784287087,	-0.71008173376948691136,	1.000000000000000
526,	5.33806374385961746043,	-1.23812060436241244687,	1.000000000000000
527,	5.58715251813207824938,	-1.78589924861860316341,	1.000000000000000
528,	5.77678482010911675815,	-2.34411080864565457560,	1.000000000000000
529,	5.90810463548410602641,	-2.90387081552995640621,	1.000000000000000
530,	5.98380684423521813642,	-3.45709349273122867885,	1.000000000000000
531,	5.99999999999999911182,	-3.82103928892385313887,	1.000000000000000
532,	6.00000000000000000000,	-4.00000000000000000000,	1.000000000000000
533,	0.00000000000000000000,	0.00000000000000000000,	1.500000000000000
534,	0.11930714071743120375,	0.00000000000000000000,	1.500000000000000
535,	0.36193767151251438063,	-0.01079543717652073180,	1.500000000000000
536,	0.73075278964669609927,	-0.06126357634392905205,	1.500000000000000
537,	1.10392612756956420839,	-0.14881011992725562409,	1.500000000000000
538,	1.47606716758759870523,	-0.27523165457861459293,	1.500000000000000
539,	1.84125293042505910890,	-0.44129083742692176706,	1.500000000000000
540,	2.19327884415367568849,	-0.64655238687477167847,	1.500000000000000
541,	2.52596444388414775872,	-0.88929417848311775874,	1.500000000000000
542,	2.83348666030629781076,	-1.16651333969370263333,	1.500000000000000
543,	3.11070582151688279637,	-1.47403555611585290741,	1.500000000000000
544,	3.35344761312522843255,	-1.80672115584632453356,	1.500000000000000
545,	3.55870916257307889907,	-2.15874706957494177928,	1.500000000000000
546,	3.72476834542138623974,	-2.52393283241240240500,	1.500000000000000
547,	3.85118988007274509755,	-2.89607387243043667979,	1.500000000000000
548,	3.93873642365607112836,	-3.26924721035330456687,	1.500000000000000
549,	3.98920456282347890564,	-3.63806232848748578590,	1.500000000000000
550,	4.00000000000000000000,	-3.88069285928256890728,	1.500000000000000
551,	4.00000000000000000000,	-4.00000000000000000000,	1.500000000000000
552,	0.00000000000000000000,	0.16666666666666668517,	1.500000000000000
553,	0.12427827158065750390,	0.16666666666666671293,	1.500000000000000
554,	0.37701840782553580622,	0.15542141960779093379,	1.500000000000000
555,	0.76120082254864185334,	0.10285044130840728660,	1.500000000000000
556,	1.14992304955162927271,	0.01165612507577541875,	1.500000000000000
557,	1.53756996623708208638,	-0.12003297351939018478,	1.500000000000000
558,	1.91797180252610299789,	-0.29301128898637679443,	1.500000000000000
559,	2.28466546266007863863,	-0.50682540299455391963,	1.500000000000000
560,	2.63121296237932034146,	-0.75968143591991410535,	1.500000000000000
561,	2.95154860448572708975,	-1.04845139551427335434,	1.500000000000000
562,	3.24031856408008600567,	-1.36878703762068010263,	1.500000000000000
563,	3.49317459700544619139,	-1.71533453733992136137,	1.500000000000000
564,	3.70698871101362303904,	-2.08202819747389744620,	1.500000000000000
565,	3.87996702648061031482,	-2.46243003376291902384,	1.500000000000000
566,	4.01165612507577584722,	-2.85007695044837117138,	1.500000000000000
567,	4.10285044130840770293,	-3.23879917745135958995,	1.500000000000000
568,	4.15542141960779076726,	-3.62298159217446436031,	1.500000000000000
569,	4.16666666666666607455,	-3.87572172841934259324,	1.500000000000000
570,	4.16666666666666696273,	-4.00000000000000000000,	1.500000000000000
571,	0.00000000000000000000,	0.50000000000000011102,	1.500000000000000
572,	0.13422053330711009034,	0.50000000000000022204,	1.500000000000000
573,	0.40717988045157871291,	0.48785513317641426845,	1.500000000000000
574,	0.82209688835253313943,	0.43107847661307996390,	1.500000000000000
575,	1.24191689351575984546,	0.33258861508183756861,	1.500000000000000
576,	1.66057556353604818256,	0.19036438859905868703,	1.500000000000000
577,	2.07140954672819077587,	0.00354780789471307798,	1.500000000000000
578,	2.46743869967288498302,	-0.22737143523411815216,	1.500000000000000
579,	2.84170999936966550692,	-0.50045595079350724266,	1.500000000000000
580,	3.18767249284458475955,	-0.81232750715541512943,	1.500000000000000
581,	3.49954404920649331245,	-1.15829000063033449308,	1.500000000000000
582,	3.77262856476588170906,	-1.53256130032711501698,	1.500000000000000
583,	4.00354780789471220714,	-1.92859045327180922413,	1.500000000000000
584,	4.19036438859905846499,	-2.33942443646395226153,	1.500000000000000
585,	4.33258861508183734657,	-2.75808310648424059863,	1.500000000000000
586,	4.43107847661307996390,	-3.17790311164746785977,	1.500000000000000
587,	4.48785513317641360231,	-3.59282011954842106505,	1.500000000000000
588,	4.49999999999999911182,	-3.86577946669288996517,	1.500000000000000
589,	4.50000000000000000000,	-4.00000000000000000000,	1.500000000000000
590,	0.00000000000000000000,	1.00000000000000000000,	1.500000000000000
591,	0.14913392589678900468,	1.00000000000000022204,	1.500000000000000
592,	0.45242208939064293416,	0.98650570352934929819,	1.500000000000000
593,	0.91344098705837017960,	0.92342052957008879943,	1.500000000000000
594,	1.37990765946195503844,	0.81398735009093059478,	1.500000000000000
595,	1.84508395948449788193,	0.65596043177673180047,	1.500000000000000
596,	2.30156616303132333101,	0.44838645321634790220,	1.500000000000000
597,	2.74159855519209427754,	0.19180951640653540191,	1.500000000000000
598,	3.15745555485518414329,	-0.11161772310389708740,	1.500000000000000
599,	3.54185832538287170834,	-0.45814167461712795859,	1.500000000000000
600,	3.88838227689610249627,	-0.84254444514481585671,	1.500000000000000
601,	4.19180951640653454149,	-1.25840144480790550041,	1.500000000000000
602,	4.44838645321634729157,	-1.69843383696867711308,	1.500000000000000
603,	4.65596043177673202251,	-2.15491604051550256216,	1.500000000000000
604,	4.81398735009093048376,	-2.62009234053804496156,	1.500000000000000
605,	4.92342052957008835534,	-3.08655901294163070858,	1.500000000000000
606,	4.98650570352934874307,	-3.54757791060935723237,	1.500000000000000
607,	4.99999999999999911182,	-3.85086607410321057898,	1.500000000000000
608,	5.00000000000000000000,	-4.00000000000000000000,	1.500000000000000
609,	0.00000000000000000000,	1.50000000000000000000,	1.500000000000000
610,	0.16404731848646789127,	1.49999999999999977796,	1.500000000000000
611,	0.49766429832970715541,	1.48515627388228432793,	1.500000000000000
612,	1.00478508576420710874,	1.41576258252709763497,	1.500000000000000
613,	1.51789842540815045346,	1.29538608510002362095,	1.500000000000000
614,	2.02959235543294802540,	1.12155647495440513595,	1.500000000000000
615,	2.53172277933445588616,	0.89322509853798270907,	1.500000000000000
616,	3.01575841071130401616,	0.61099046804718892822,	1.500000000000000
617,	3.47320111034070277967,	0.27722050458571312337,	1.500000000000000
618,	3.89604415792115910122,	-0.10395584207884077388,	1.500000000000000
619,	4.27722050458571345644,	-0.52679888965929733136,	1.500000000000000
620,	4.61099046804718870618,	-0.98424158928869609486,	1.500000000000000
621,	4.89322509853798237600,	-1.46827722066554455793,	1.500000000000000
622,	5.12155647495440469186,	-1.97040764456705264074,	1.500000000000000
623,	5.29538608510002362095,	-2.48210157459185021267,	1.500000000000000
624,	5.41576258252709674679,	-2.99521491423579311331,	1.500000000000000
625,	5.48515627388228388384,	-3.50233570167029295561,	1.500000000000000
626,	5.49999999999999911182,	-3.83595268151353252506,	1.500000000000000
627,	5.50000000000000000000,	-4.00000000000000000000,	1.500000000000000
628,	0.00000000000000000000,	1.83333333333333325932,	1.500000000000000
629,	0.17398958021292049159,	1.83333333333333303727,	1.500000000000000
630,	0.52782577095575000659,	1.81758998745090738502,	1.500000000000000
631,	1.06568115156809839483,	1.74399061783177011797,	1.500000000000000
632,	1.60989226937228102621,	1.61631857510608556439,	1.500000000000000
633,	2.15259795273191434362,	1.43195383707285373021,	1.500000000000000
634,	2.68516052353654410823,	1.18978419541907243229,	1.500000000000000
635,	3.19853164772411036054,	0.89044443580762444590,	1.500000000000000
636,	3.68369814733104838922,	0.53644598971211987504,	1.500000000000000
637,	4.13216804628001721511,	0.13216804628001727062,	1.500000000000000
638,	4.53644598971212076322,	-0.31630185266895183283,	1.500000000000000
639,	4.89044443580762422386,	-0.80146835227588986150,	1.500000000000000
640,	5.18978419541907243229,	-1.31483947646345633586,	1.500000000000000
641,	5.43195383707285373021,	-1.84740204726808632252,	1.500000000000000
642,	5.61631857510608512030,	-2.39010773062772008402,	1.500000000000000
643,	5.74399061783177078411,	-2.93431884843190227130,	1.500000000000000
644,	5.81758998745090671889,	-3.47217422904424966035,	1.500000000000000
645,	5.83333333333333214910,	-3.82601041978707945290,	1.500000000000000
646,	5.83333333333333303727,	-4.00000000000000000000,	1.500000000000000
647,	0.00000000000000000000,	2.00000000000000000000,	1.500000000000000
648,	0.17896071107614675011,	2.00000000000000000000,	1.500000000000000
649,	0.54290650726877132115,	1.98380684423521880255,	1.500000000000000
650,	1.09612918447004403788,	1.90810463548410647050,	1.500000000000000
651,	1.65588919135434609053,	1.77678482010911653610,	1.500000000000000
652,	2.21410075138139772477,	1.58715251813207802734,	1.500000000000000
653,	2.76187939563758844130,	1.33806374385961746043,	1.500000000000000
654,	3.28991826623051331069,	1.03017141968784220474,	1.500000000000000
655,	3.78894666582622097195,	0.66605873227532330638,	1.500000000000000
656,	4.25022999045944605001,	0.25022999045944621654,	1.500000000000000
657,	4.66605873227532352843,	-0.21105333417377911132,	1.500000000000000
658,	5.03017141968784287087,	-0.71008173376948691136,	1.500000000000000
659,	5.33806374385961746043,	-1.23812060436241244687,	1.500000000000000
660,	5.58715251813207824938,	-1.78589924861860316341,	1.500000000000000
661,	5.77678482010911675815,	-2.34411080864565457560,	1.500000000000000
662,	5.90810463548410602641,	-2.90387081552995640621,	1.500000000000000
663,	5.98380684423521813642,	-3.45709349273122867885,	1.500000000000000
664,	5.99999999999999911182,	-3.82103928892385313887,	1.500000000000000
665,	6.00000000000000000000,	-4.00000000000000000000,	1.500000000000000
666,	0.00000000000000000000,	0.00000000000000000000,	1.833333333333333
667,	0.11930714071743120375,	0.00000000000000000000,	1.833333333333333
668,	0.36193767151251438063,	-0.01079543717652073180,	1.833333333333333
669,	0.73075278964669609927,	-0.06126357634392905205,	1.833333333333333
670,	1.10392612756956420839,	-0.14881011992725562409,	1.833333333333333
671,	1.47606716758759870523,	-0.27523165457861459293,	1.833333333333333
672,	1.84125293042505910890,	-0.44129083742692176706,	1.833333333333333
673,	2.19327884415367568849,	-0.64655238687477167847,	1.833333333333333
674,	2.52596444388414775872,	-0.88929417848311775874,	1.833333333333333
675,	2.83348666030629781076,	-1.16651333969370263333,	1.833333333333333
676,	3.11070582151688279637,	-1.47403555611585290741,	1.833333333333333
677,	3.35344761312522843255,	-1.80672115584632453356,	1.833333333333333
678,	3.55870916257307889907,	-2.15874706957494177928,	1.833333333333333
679,	3.72476834542138623974,	-2.52393283241240240500,	1.833333333333333
680,	3.85118988007274509755,	-2.89607387243043667979,	1.833333333333333
681,	3.93873642365607112836,	-3.26924721035330456687,	1.833333333333333
682,	3.98920456282347890564,	-3.63806232848748578590,	1.833333333333333
683,	4.00000000000000000000,	-3.88069285928256890728,	1.833333333333333
684,	4.00000000000000000000,	-4.00000000000000000000,	1.833333333333333
685,	0.00000000000000000000,	0.16666666666666668517,	1.833333333333333
686,	0.12427827158065750390,	0.16666666666666671293,	1.833333333333333
687,	0.37701840782553580622,	0.15542141960779093379,	1.833333333333333
688,	0.76120082254864185334,	0.10285044130840728660,	1.833333333333333
689,	1.14992304955162927271,	0.01165612507577541875,	1.833333333333333
690,	1.53756996623708208638,	-0.12003297351939018478,	1.833333333333333
691,	1.91797180252610299789,	-0.29301128898637679443,	1.833333333333333
692,	2.28466546266007863863,	-0.50682540299455391963,	1.833333333333333
693,	2.63121296237932034146,	-0.75968143591991410535,	1.833333333333333
694,	2.95154860448572708975,	-1.04845139551427335434,	1.833333333333333
695,	3.24031856408008600567,	-1.36878703762068010263,	1.833333333333333
696,	3.49317459700544619139,	-1.71533453733992136137,	1.833333333333333
697,	3.70698871101362303904,	-2.08202819747389744620,	1.833333333333333
698,	3.87996702648061031482,	-2.46243003376291902384,	1.833333333333333
699,	4.01165612507577584722,	-2.85007695044837117138,	1.833333333333333
700,	4.10285044130840770293,	-3.23879917745135958995,	1.833333333333333
701,	4.15542141960779076726,	-3.62298159217446436031,	1.833333333333333
702,	4.16666666666666607455,	-3.87572172841934259324,	1.833333333333333
703,	4.16666666666666696273,	-4.00000000000000000000,	1.833333333333333
704,	0.00000000000000000000,	0.50000000000000011102,	1.833333333333333
705,	0.13422053330711009034,	0.50000000000000022204,	1.833333333333333
706,	0.40717988045157871291,	0.48785513317641426845,	1.833333333333333
707,	0.82209688835253313943,	0.43107847661307996390,	1.833333333333333
708,	1.24191689351575984546,	0.33258861508183756861,	1.833333333333333
709,	1.66057556353604818256,	0.19036438859905868703,	1.833333333333333
710,	2.07140954672819077587,	0.00354780789471307798,	1.833333333333333
711,	2.46743869967288498302,	-0.22737143523411815216,	1.833333333333333
712,	2.84170999936966550692,	-0.50045595079350724266,	1.833333333333333
713,	3.18767249284458475955,	-0.81232750715541512943,	1.833333333333333
714,	3.49954404920649331245,	-1.15829000063033449308,	1.833333333333333
715,	3.77262856476588170906,	-1.53256130032711501698,	1.833333333333333
716,	4.00354780789471220714,	-1.92859045327180922413,	1.833333333333333
717,	4.19036438859905846499,	-2.33942443646395226153,	1.833333333333333
718,	4.33258861508183734657,	-2.75808310648424059863,	1.833333333333333
719,	4.43107847661307996390,	-3.17790311164746785977,	1.833333333333333
720,	4.48785513317641360231,	-3.59282011954842106505,	1.833333333333333
721,	4.49999999999999911182,	-3.86577946669288996517,	1.833333333333333
722,	4.50000000000000000000,	-4.00000000000000000000,	1.833333333333333
723,	0.00000000000000000000,	1.00000000000000000000,	1.833333333333333
724,	0.14913392589678900468,	1.00000000000000022204,	1.833333333333333
725,	0.45242208939064293416,	0.98650570352934929819,	1.833333333333333
726,	0.91344098705837017960,	0.92342052957008879943,	1.833333333333333
727,	1.37990765946195503844,	0.81398735009093059478,	1.833333333333333
728,	1.84508395948449788193,	0.65596043177673180047,	1.833333333333333
729,	2.30156616303132333101,	0.44838645321634790220,	1.833333333333333
730,	2.74159855519209427754,	0.19180951640653540191,	1.833333333333333
731,	3.15745555485518414329,	-0.11161772310389708740,	1.833333333333333
732,	3.54185832538287170834,	-0.45814167461712795859,	1.833333333333333
733,	3.88838227689610249627,	-0.84254444514481585671,	1.833333333333333
734,	4.19180951640653454149,	-1.25840144480790550041,	1.833333333333333
735,	4.44838645321634729157,	-1.69843383696867711308,	1.833333333333333
736,	4.65596043177673202251,	-2.15491604051550256216,	1.833333333333333
737,	4.81398735009093048376,	-2.62009234053804496156,	1.833333333333333
738,	4.92342052957008835534,	-3.08655901294163070858,	1.833333333333333
739,	4.98650570352934874307,	-3.54757791060935723237,	1.833333333333333
740,	4.99999999999999911182,	-3.85086607410321057898,	1.833333333333333
741,	5.00000000000000000000,	-4.00000000000000000000,	1.833333333333333
742,	0.00000000000000000000,	1.50000000000000000000,	1.833333333333333
743,	0.16404731848646789127,	1.49999999999999977796,	1.833333333333333
744,	0.49766429832970715541,	1.48515627388228432793,	1.833333333333333
745,	1.00478508576420710874,	1.41576258252709763497,	1.833333333333333
746,	1.51789842540815045346,	1.29538608510002362095,	1.833333333333333
747,	2.02959235543294802540,	1.12155647495440513595,	1.833333333333333
748,	2.53172277933445588616,	0.89322509853798270907,	1.833333333333333
749,	3.01575841071130401616,	0.61099046804718892822,	1.833333333333333
750,	3.47320111034070277967,	0.27722050458571312337,	1.833333333333333
751,	3.89604415792115910122,	-0.10395584207884077388,	1.833333333333333
752,	4.27722050458571345644,	-0.52679888965929733136,	1.833333333333333
753,	4.61099046804718870618,	-0.98424158928869609486,	1.833333333333333
754,	4.89322509853798237600,	-1.46827722066554455793,	1.833333333333333
755,	5.12155647495440469186,	-1.97040764456705264074,	1.833333333333333
756,	5.29538608510002362095,	-2.48210157459185021267,	1.833333333333333
757,	5.41576258252709674679,	-2.99521491423579311331,	1.833333333333333
758,	5.48515627388228388384,	-3.50233570167029295561,	1.833333333333333
759,	5.49999999999999911182,	-3.83595268151353252506,	1.833333333333333
760,	5.50000000000000000000,	-4.00000000000000000000,	1.833333333333333
761,	0.00000000000000000000,	1.83333333333333325932,	1.833333333333333
762,	0.17398958021292049159,	1.83333333333333303727,	1.833333333333333
763,	0.52782577095575000659,	1.81758998745090738502,	1.833333333333333
764,	1.06568115156809839483,	1.74399061783177011797,	1.833333333333333
765,	1.60989226937228102621,	1.61631857510608556439,	1.833333333333333
766,	2.15259795273191434362,	1.43195383707285373021,	1.833333333333333
767,	2.68516052353654410823,	1.18978419541907243229,	1.833333333333333
768,	3.19853164772411036054,	0.89044443580762444590,	1.833333333333333
769,	3.68369814733104838922,	0.53644598971211987504,	1.833333333333333
770,	4.13216804628001721511,	0.13216804628001727062,	1.833333333333333
771,	4.53644598971212076322,	-0.31630185266895183283,	1.833333333333333
772,	4.89044443580762422386,	-0.80146835227588986150,	1.833333333333333
773,	5.18978419541907243229,	-1.31483947646345633586,	1.833333333333333
774,	5.43195383707285373021,	-1.84740204726808632252,	1.833333333333333
775,	5.61631857510608512030,	-2.39010773062772008402,	1.833333333333333
776,	5.74399061783177078411,	-2.93431884843190227130,	1.833333333333333
777,	5.81758998745090671889,	-3.47217422904424966035,	1.833333333333333
778,	5.83333333333333214910,	-3.82601041978707945290,	1.833333333333333
779,	5.83333333333333303727,	-4.00000000000000000000,	1.833333333333333
780,	0.00000000000000000000,	2.00000000000000000000,	1.833333333333333
781,	0.17896071107614675011,	2.00000000000000000000,	1.833333333333333
782,	0.54290650726877132115,	1.98380684423521880255,	1.833333333333333
783,	1.09612918447004403788,	1.90810463548410647050,	1.833333333333333
784,	1.65588919135434609053,	1.77678482010911653610,	1.833333333333333
785,	2.21410075138139772477,	1.58715251813207802734,	1.833333333333333
786,	2.76187939563758844130,	1.33806374385961746043,	1.833333333333333
787,	3.28991826623051331069,	1.03017141968784220474,	1.833333333333333
788,	3.78894666582622097195,	0.66605873227532330638,	1.833333333333333
789,	4.25022999045944605001,	0.25022999045944621654,	1.833333333333333
790,	4.66605873227532352843,	-0.21105333417377911132,	1.833333333333333
791,	5.03017141968784287087,	-0.71008173376948691136,	1.833333333333333
792,	5.33806374385961746043,	-1.23812060436241244687,	1.833333333333333
793,	5.58715251813207824938,	-1.78589924861860316341,	1.833333333333333
794,	5.77678482010911675815,	-2.34411080864565457560,	1.833333333333333
795,	5.90810463548410602641,	-2.90387081552995640621,	1.833333333333333
796,	5.98380684423521813642,	-3.45709349273122867885,	1.833333333333333
797,	5.99999999999999911182,	-3.82103928892385313887,	1.833333333333333
798,	6.00000000000000000000,	-4.00000000000000000000,	1.833333333333333
799,	0.00000000000000000000,	0.00000000000000000000,	2.000000000000000
800,	0.11930714071743120375,	0.00000000000000000000,	2.000000000000000
801,	0.36193767151251438063,	-0.01079543717652073180,	2.000000000000000
802,	0.73075278964669609927,	-0.06126357634392905205,	2.000000000000000
803,	1.10392612756956420839,	-0.14881011992725562409,	2.000000000000000
804,	1.47606716758759870523,	-0.27523165457861459293,	2.000000000000000
805,	1.84125293042505910890,	-0.44129083742692176706,	2.000000000000000
806,	2.19327884415367568849,	-0.64655238687477167847,	2.000000000000000
807,	2.52596444388414775872,	-0.88929417848311775874,	2.000000000000000
808,	2.83348666030629781076,	-1.16651333969370263333,	2.000000000000000
809,	3.11070582151688279637,	-1.47403555611585290741,	2.000000000000000
810,	3.35344761312522843255,	-1.80672115584632453356,	2.000000000000000
811,	3.55870916257307889907,	-2.15874706957494177928,	2.000000000000000
812,	3.72476834542138623974,	-2.52393283241240240500,	2.000000000000000
813,	3.85118988007274509755,	-2.89607387243043667979,	2.000000000000000
814,	3.93873642365607112836,	-3.26924721035330456687,	2.000000000000000
815,	3.98920456282347890564,	-3.63806232848748578590,	2.000000000000000
816,	4.00000000000000000000,	-3.88069285928256890728,	2.000000000000000
817,	4.00000000000000000000,	-4.00000000000000000000,	2.000000000000000
818,	0.00000000000000000000,	0.16666666666666668517,	2.000000000000000
819,	0.12427827158065750390,	0.16666666666666671293,	2.000000000000000
820,	0.37701840782553580622,	0.15542141960779093379,	2.000000000000000
821,	0.76120082254864185334,	0.10285044130840728660,	2.000000000000000
822,	1.14992304955162927271,	0.01165612507577541875,	2.000000000000000
823,	1.53756996623708208638,	-0.12003297351939018478,	2.000000000000000
824,	1.91797180252610299789,	-0.29301128898637679443,	2.000000000000000
825,	2.28466546266007863863,	-0.50682540299455391963,	2.000000000000000
826,	2.63121296237932034146,	-0.75968143591991410535,	2.000000000000000
827,	2.95154860448572708975,	-1.04845139551427335434,	2.000000000000000
828,	3.24031856408008600567,	-1.36878703762068010263,	2.000000000000000
829,	3.49317459700544619139,	-1.71533453733992136137,	2.000000000000000
830,	3.70698871101362303904,	-2.08202819747389744620,	2.000000000000000
831,	3.87996702648061031482,	-2.46243003376291902384,	2.000000000000000
832,	4.01165612507577584722,	-2.85007695044837117138,	2.000000000000000
833,	4.10285044130840770293,	-3.23879917745135958995,	2.000000000000000
834,	4.15542141960779076726,	-3.62298159217446436031,	2.000000000000000
835,	4.16666666666666607455,	-3.87572172841934259324,	2.000000000000000
836,	4.16666666666666696273,	-4.00000000000000000000,	2.000000000000000
837,	0.00000000000000000000,	0.50000000000000011102,	2.000000000000000
838,	0.13422053330711009034,	0.50000000000000022204,	2.000000000000000
839,	0.40717988045157871291,	0.48785513317641426845,	2.000000000000000
840,	0.82209688835253313943,	0.43107847661307996390,	2.000000000000000
841,	1.24191689351575984546,	0.33258861508183756861,	2.000000000000000
842,	1.66057556353604818256,	0.19036438859905868703,	2.000000000000000
843,	2.07140954672819077587,	0.00354780789471307798,	2.000000000000000
844,	2.46743869967288498302,	-0.22737143523411815216,	2.000000000000000
845,	2.84170999936966550692,	-0.50045595079350724266,	2.000000000000000
846,	3.18767249284458475955,	-0.81232750715541512943,	2.000000000000000
847,	3.49954404920649331245,	-1.15829000063033449308,	2.000000000000000
848,	3.77262856476588170906,	-1.53256130032711501698,	2.000000000000000
849,	4.00354780789471220714,	-1.92859045327180922413,	2.000000000000000
850,	4.19036438859905846499,	-2.33942443646395226153,	2.000000000000000
851,	4.33258861508183734657,	-2.75808310648424059863,	2.000000000000000
852,	4.43107847661307996390,	-3.17790311164746785977,	2.000000000000000
853,	4.48785513317641360231,	-3.59282011954842106505,	2.000000000000000
854,	4.49999999999999911182,	-3.86577946669288996517,	2.000000000000000
855,	4.50000000000000000000,	-4.00000000000000000000,	2.000000000000000
856,	0.00000000000000000000,	1.00000000000000000000,	2.000000000000000
857,	0.14913392589678900468,	1.00000000000000022204,	2.000000000000000
858,	0.45242208939064293416,	0.98650570352934929819,	2.000000000000000
859,	0.91344098705837017960,	0.92342052957008879943,	2.000000000000000
860,	1.37990765946195503844,	0.81398735009093059478,	2.000000000000000
861,	1.84508395948449788193,	0.65596043177673180047,	2.000000000000000
862,	2.30156616303132333101,	0.44838645321634790220,	2.000000000000000
863,	2.74159855519209427754,	0.19180951640653540191,	2.000000000000000
864,	3.15745555485518414329,	-0.11161772310389708740,	2.000000000000000
865,	3.54185832538287170834,	-0.45814167461712795859,	2.000000000000000
866,	3.88838227689610249627,	-0.84254444514481585671,	2.000000000000000
867,	4.19180951640653454149,	-1.25840144480790550041,	2.000000000000000
868,	4.44838645321634729157,	-1.69843383696867711308,	2.000000000000000
869,	4.65596043177673202251,	-2.15491604051550256216,	2.000000000000000
870,	4.81398735009093048376,	-2.62009234053804496156,	2.000000000000000
871,	4.92342052957008835534,	-3.08655901294163070858,	2.000000000000000
872,	4.98650570352934874307,	-3.54757791060935723237,	2.000000000000000
873,	4.99999999999999911182,	-3.85086607410321057898,	2.000000000000000
874,	5.00000000000000000000,	-4.00000000000000000000,	2.000000000000000
875,	0.00000000000000000000,	1.50000000000000000000,	2.000000000000000
876,	0.16404731848646789127,	1.49999999999999977796,	2.000000000000000
877,	0.49766429832970715541,	1.48515627388228432793,	2.000000000000000
878,	1.00478508576420710874,	1.41576258252709763497,	2.000000000000000
879,	1.51789842540815045346,	1.29538608510002362095,	2.000000000000000
880,	2.02959235543294802540,	1.12155647495440513595,	2.000000000000000
881,	2.53172277933445588616,	0.89322509853798270907,	2.000000000000000
882,	3.01575841071130401616,	0.61099046804718892822,	2.000000000000000
883,	3.47320111034070277967,	0.27722050458571312337,	2.000000000000000
884,	3.89604415792115910122,	-0.10395584207884077388,	2.000000000000000
885,	4.27722050458571345644,	-0.52679888965929733136,	2.000000000000000
886,	4.61099046804718870618,	-0.98424158928869609486,	2.000000000000000
887,	4.89322509853798237600,	-1.46827722066554455793,	2.000000000000000
888,	5.12155647495440469186,	-1.97040764456705264074,	2.000000000000000
889,	5.29538608510002362095,	-2.48210157459185021267,	2.000000000000000
890,	5.41576258252709674679,	-2.99521491423579311331,	2.000000000000000
891,	5.48515627388228388384,	-3.50233570167029295561,	2.000000000000000
892,	5.49999999999999911182,	-3.83595268151353252506,	2.000000000000000
893,	5.50000000000000000000,	-4.00000000000000000000,	2.000000000000000
894,	0.00000000000000000000,	1.83333333333333325932,	2.000000000000000
895,	0.17398958021292049159,	1.83333333333333303727,	2.000000000000000
896,	0.52782577095575000659,	1.81758998745090738502,	2.000000000000000
897,	1.06568115156809839483,	1.74399061783177011797,	2.000000000000000
898,	1.60989226937228102621,	1.61631857510608556439,	2.000000000000000
899,	2.15259795273191434362,	1.43195383707285373021,	2.000000000000000
900,	2.68516052353654410823,	1.18978419541907243229,	2.000000000000000
901,	3.19853164772411036054,	0.89044443580762444590,	2.000000000000000
902,	3.68369814733104838922,	0.53644598971211987504,	2.000000000000000
903,	4.13216804628001721511,	0.13216804628001727062,	2.000000000000000
904,	4.53644598971212076322,	-0.31630185266895183283,	2.000000000000000
905,	4.89044443580762422386,	-0.80146835227588986150,	2.000000000000000
906,	5.18978419541907243229,	-1.31483947646345633586,	2.000000000000000
907,	5.43195383707285373021,	-1.84740204726808632252,	2.000000000000000
908,	5.61631857510608512030,	-2.39010773062772008402,	2.000000000000000
909,	5.74399061783177078411,	-2.93431884843190227130,	2.000000000000000
910,	5.81758998745090671889,	-3.47217422904424966035,	2.000000000000000
911,	5.83333333333333214910,	-3.82601041978707945290,	2.000000000000000
912,	5.83333333333333303727,	-4.00000000000000000000,	2.000000000000000
913,	0.00000000000000000000,	2.00000000000000000000,	2.000000000000000
914,	0.17896071107614675011,	2.00000000000000000000,	2.000000000000000
915,	0.54290650726877132115,	1.98380684423521880255,	2.000000000000000
916,	1.09612918447004403788,	1.90810463548410647050,	2.000000000000000
917,	1.65588919135434609053,	1.77678482010911653610,	2.000000000000000
918,	2.21410075138139772477,	1.58715251813207802734,	2.000000000000000
919,	2.76187939563758844130,	1.33806374385961746043,	2.000000000000000
920,	3.28991826623051331069,	1.03017141968784220474,	2.000000000000000
921,	3.78894666582622097195,	0.66605873227532330638,	2.000000000000000
922,	4.25022999045944605001,	0.25022999045944621654,	2.000000000000000
923,	4.66605873227532352843,	-0.21105333417377911132,	2.000000000000000
924,	5.03017141968784287087,	-0.71008173376948691136,	2.000000000000000
925,	5.33806374385961746043,	-1.23812060436241244687,	2.000000000000000
926,	5.58715251813207824938,	-1.78589924861860316341,	2.000000000000000
927,	5.77678482010911675815,	-2.34411080864565457560,	2.000000000000000
928,	5.90810463548410602641,	-2.90387081552995640621,	2.000000000000000
929,	5.98380684423521813642,	-3.45709349273122867885,	2.000000000000000
930,	5.99999999999999911182,	-3.82103928892385313887,	2.000000000000000
931,	6.00000000000000000000,	-4.00000000000000000000,	2.000000000000000
**
*USER ELEMENT, NODES=64, TYPE=U64, PROPERTIES=23, COORDINATES=3
1, 2, 3
**
*ELEMENT, TYPE=U64, ELSET=ELSET1
1,1,2,3,4,
20,21,22,23,
39,40,41,42,
58,59,60,61,
134,135,136,137,
153,154,155,156,
172,173,174,175,
191,192,193,194,
267,268,269,270,
286,287,288,289,
305,306,307,308,
324,325,326,327,
400,401,402,403,
419,420,421,422,
438,439,440,441,
457,458,459,460
2,2,3,4,5,
21,22,23,24,
40,41,42,43,
59,60,61,62,
135,136,137,138,
154,155,156,157,
173,174,175,176,
192,193,194,195,
268,269,270,271,
287,288,289,290,
306,307,308,309,
325,326,327,328,
401,402,403,404,
420,421,422,423,
439,440,441,442,
458,459,460,461
3,3,4,5,6,
22,23,24,25,
41,42,43,44,
60,61,62,63,
136,137,138,139,
155,156,157,158,
174,175,176,177,
193,194,195,196,
269,270,271,272,
288,289,290,291,
307,308,309,310,
326,327,328,329,
402,403,404,405,
421,422,423,424,
440,441,442,443,
459,460,461,462
4,4,5,6,7,
23,24,25,26,
42,43,44,45,
61,62,63,64,
137,138,139,140,
156,157,158,159,
175,176,177,178,
194,195,196,197,
270,271,272,273,
289,290,291,292,
308,309,310,311,
327,328,329,330,
403,404,405,406,
422,423,424,425,
441,442,443,444,
460,461,462,463
5,5,6,7,8,
24,25,26,27,
43,44,45,46,
62,63,64,65,
138,139,140,141,
157,158,159,160,
176,177,178,179,
195,196,197,198,
271,272,273,274,
290,291,292,293,
309,310,311,312,
328,329,330,331,
404,405,406,407,
423,424,425,426,
442,443,444,445,
461,462,463,464
6,6,7,8,9,
25,26,27,28,
44,45,46,47,
63,64,65,66,
139,140,141,142,
158,159,160,161,
177,178,179,180,
196,197,198,199,
272,273,274,275,
291,292,293,294,
310,311,312,313,
329,330,331,332,
405,406,407,408,
424,425,426,427,
443,444,445,446,
462,463,464,465
7,7,8,9,10,
26,27,28,29,
45,46,47,48,
64,65,66,67,
140,141,142,143,
159,160,161,162,
178,179,180,181,
197,198,199,200,
273,274,275,276,
292,293,294,295,
311,312,313,314,
330,331,332,333,
406,407,408,409,
425,426,427,428,
444,445,446,447,
463,464,465,466
8,8,9,10,11,
27,28,29,30,
46,47,48,49,
65,66,67,68,
141,142,143,144,
160,161,162,163,
179,180,181,182,
198,199,200,201,
274,275,276,277,
293,294,295,296,
312,313,314,315,
331,332,333,334,
407,408,409,410,
426,427,428,429,
445,446,447,448,
464,465,466,467
9,9,10,11,12,
28,29,30,31,
47,48,49,50,
66,67,68,69,
142,143,144,145,
161,162,163,164,
180,181,182,183,
199,200,201,202,
275,276,277,278,
294,295,296,297,
313,314,315,316,
332,333,334,335,
408,409,410,411,
427,428,429,430,
446,447,448,449,
465,466,467,468
10,10,11,12,13,
29,30,31,32,
48,49,50,51,
67,68,69,70,
143,144,145,146,
162,163,164,165,
181,182,183,184,
200,201,202,203,
276,277,278,279,
295,296,297,298,
314,315,316,317,
333,334,335,336,
409,410,411,412,
428,429,430,431,
447,448,449,450,
466,467,468,469
11,11,12,13,14,
30,31,32,33,
49,50,51,52,
68,69,70,71,
144,145,146,147,
163,164,165,166,
182,183,184,185,
201,202,203,204,
277,278,279,280,
296,297,298,299,
315,316,317,318,
334,335,336,337,
410,411,412,413,
429,430,431,432,
448,449,450,451,
467,468,469,470
12,12,13,14,15,
31,32,33,34,
50,51,52,53,
69,70,71,72,
145,146,147,148,
164,165,166,167,
183,184,185,186,
202,203,204,205,
278,279,280,281,
297,298,299,300,
316,317,318,319,
335,336,337,338,
411,412,413,414,
430,431,432,433,
449,450,451,452,
468,469,470,471
13,13,14,15,16,
32,33,34,35,
51,52,53,54,
70,71,72,73,
146,147,148,149,
165,166,167,168,
184,185,186,187,
203,204,205,206,
279,280,281,282,
298,299,300,301,
317,318,319,320,
336,337,338,339,
412,413,414,415,
431,432,433,434,
450,451,452,453,
469,470,471,472
14,14,15,16,17,
33,34,35,36,
52,53,54,55,
71,72,73,74,
147,148,149,150,
166,167,168,169,
185,186,187,188,
204,205,206,207,
280,281,282,283,
299,300,301,302,
318,319,320,321,
337,338,339,340,
413,414,415,416,
432,433,434,435,
451,452,453,454,
470,471,472,473
15,15,16,17,18,
34,35,36,37,
53,54,55,56,
72,73,74,75,
148,149,150,151,
167,168,169,170,
186,187,188,189,
205,206,207,208,
281,282,283,284,
300,301,302,303,
319,320,321,322,
338,339,340,341,
414,415,416,417,
433,434,435,436,
452,453,454,455,
471,472,473,474
16,16,17,18,19,
35,36,37,38,
54,55,56,57,
73,74,75,76,
149,150,151,152,
168,169,170,171,
187,188,189,190,
206,207,208,209,
282,283,284,285,
301,302,303,304,
320,321,322,323,
339,340,341,342,
415,416,417,418,
434,435,436,437,
453,454,455,456,
472,473,474,475
17,20,21,22,23,
39,40,41,42,
58,59,60,61,
77,78,79,80,
153,154,155,156,
172,173,174,175,
191,192,193,194,
210,211,212,213,
286,287,288,289,
305,306,307,308,
324,325,326,327,
343,344,345,346,
419,420,421,422,
438,439,440,441,
457,458,459,460,
476,477,478,479
18,21,22,23,24,
40,41,42,43,
59,60,61,62,
78,79,80,81,
154,155,156,157,
173,174,175,176,
192,193,194,195,
211,212,213,214,
287,288,289,290,
306,307,308,309,
325,326,327,328,
344,345,346,347,
420,421,422,423,
439,440,441,442,
458,459,460,461,
477,478,479,480
19,22,23,24,25,
41,42,43,44,
60,61,62,63,
79,80,81,82,
155,156,157,158,
174,175,176,177,
193,194,195,196,
212,213,214,215,
288,289,290,291,
307,308,309,310,
326,327,328,329,
345,346,347,348,
421,422,423,424,
440,441,442,443,
459,460,461,462,
478,479,480,481
20,23,24,25,26,
42,43,44,45,
61,62,63,64,
80,81,82,83,
156,157,158,159,
175,176,177,178,
194,195,196,197,
213,214,215,216,
289,290,291,292,
308,309,310,311,
327,328,329,330,
346,347,348,349,
422,423,424,425,
441,442,443,444,
460,461,462,463,
479,480,481,482
21,24,25,26,27,
43,44,45,46,
62,63,64,65,
81,82,83,84,
157,158,159,160,
176,177,178,179,
195,196,197,198,
214,215,216,217,
290,291,292,293,
309,310,311,312,
328,329,330,331,
347,348,349,350,
423,424,425,426,
442,443,444,445,
461,462,463,464,
480,481,482,483
22,25,26,27,28,
44,45,46,47,
63,64,65,66,
82,83,84,85,
158,159,160,161,
177,178,179,180,
196,197,198,199,
215,216,217,218,
291,292,293,294,
310,311,312,313,
329,330,331,332,
348,349,350,351,
424,425,426,427,
443,444,445,446,
462,463,464,465,
481,482,483,484
23,26,27,28,29,
45,46,47,48,
64,65,66,67,
83,84,85,86,
159,160,161,162,
178,179,180,181,
197,198,199,200,
216,217,218,219,
292,293,294,295,
311,312,313,314,
330,331,332,333,
349,350,351,352,
425,426,427,428,
444,445,446,447,
463,464,465,466,
482,483,484,485
24,27,28,29,30,
46,47,48,49,
65,66,67,68,
84,85,86,87,
160,161,162,163,
179,180,181,182,
198,199,200,201,
217,218,219,220,
293,294,295,296,
312,313,314,315,
331,332,333,334,
350,351,352,353,
426,427,428,429,
445,446,447,448,
464,465,466,467,
483,484,485,486
25,28,29,30,31,
47,48,49,50,
66,67,68,69,
85,86,87,88,
161,162,163,164,
180,181,182,183,
199,200,201,202,
218,219,220,221,
294,295,296,297,
313,314,315,316,
332,333,334,335,
351,352,353,354,
427,428,429,430,
446,447,448,449,
465,466,467,468,
484,485,486,487
26,29,30,31,32,
48,49,50,51,
67,68,69,70,
86,87,88,89,
162,163,164,165,
181,182,183,184,
200,201,202,203,
219,220,221,222,
295,296,297,298,
314,315,316,317,
333,334,335,336,
352,353,354,355,
428,429,430,431,
447,448,449,450,
466,467,468,469,
485,486,487,488
27,30,31,32,33,
49,50,51,52,
68,69,70,71,
87,88,89,90,
163,164,165,166,
182,183,184,185,
201,202,203,204,
220,221,222,223,
296,297,298,299,
315,316,317,318,
334,335,336,337,
353,354,355,356,
429,430,431,432,
448,449,450,451,
467,468,469,470,
486,487,488,489
28,31,32,33,34,
50,51,52,53,
69,70,71,72,
88,89,90,91,
164,165,166,167,
183,184,185,186,
202,203,204,205,
221,222,223,224,
297,298,299,300,
316,317,318,319,
335,336,337,338,
354,355,356,357,
430,431,432,433,
449,450,451,452,
468,469,470,471,
487,488,489,490
29,32,33,34,35,
51,52,53,54,
70,71,72,73,
89,90,91,92,
165,166,167,168,
184,185,186,187,
203,204,205,206,
222,223,224,225,
298,299,300,301,
317,318,319,320,
336,337,338,339,
355,356,357,358,
431,432,433,434,
450,451,452,453,
469,470,471,472,
488,489,490,491
30,33,34,35,36,
52,53,54,55,
71,72,73,74,
90,91,92,93,
166,167,168,169,
185,186,187,188,
204,205,206,207,
223,224,225,226,
299,300,301,302,
318,319,320,321,
337,338,339,340,
356,357,358,359,
432,433,434,435,
451,452,453,454,
470,471,472,473,
489,490,491,492
31,34,35,36,37,
53,54,55,56,
72,73,74,75,
91,92,93,94,
167,168,169,170,
186,187,188,189,
205,206,207,208,
224,225,226,227,
300,301,302,303,
319,320,321,322,
338,339,340,341,
357,358,359,360,
433,434,435,436,
452,453,454,455,
471,472,473,474,
490,491,492,493
32,35,36,37,38,
54,55,56,57,
73,74,75,76,
92,93,94,95,
168,169,170,171,
187,188,189,190,
206,207,208,209,
225,226,227,228,
301,302,303,304,
320,321,322,323,
339,340,341,342,
358,359,360,361,
434,435,436,437,
453,454,455,456,
472,473,474,475,
491,492,493,494
33,39,40,41,42,
58,59,60,61,
77,78,79,80,
96,97,98,99,
172,173,174,175,
191,192,193,194,
210,211,212,213,
229,230,231,232,
305,306,307,308,
324,325,326,327,
343,344,345,346,
362,363,364,365,
438,439,440,441,
457,458,459,460,
476,477,478,479,
495,496,497,498
34,40,41,42,43,
59,60,61,62,
78,79,80,81,
97,98,99,100,
173,174,175,176,
192,193,194,195,
211,212,213,214,
230,231,232,233,
306,307,308,309,
325,326,327,328,
344,345,346,347,
363,364,365,366,
439,440,441,442,
458,459,460,461,
477,478,479,480,
496,497,498,499
35,41,42,43,44,
60,61,62,63,
79,80,81,82,
98,99,100,101,
174,175,176,177,
193,194,195,196,
212,213,214,215,
231,232,233,234,
307,308,309,310,
326,327,328,329,
345,346,347,348,
364,365,366,367,
440,441,442,443,
459,460,461,462,
478,479,480,481,
497,498,499,500
36,42,43,44,45,
61,62,63,64,
80,81,82,83,
99,100,101,102,
175,176,177,178,
194,195,196,197,
213,214,215,216,
232,233,234,235,
308,309,310,311,
327,328,329,330,
346,347,348,349,
365,366,367,368,
441,442,443,444,
460,461,462,463,
479,480,481,482,
498,499,500,501
37,43,44,45,46,
62,63,64,65,
81,82,83,84,
100,101,102,103,
176,177,178,179,
195,196,197,198,
214,215,216,217,
233,234,235,236,
309,310,311,312,
328,329,330,331,
347,348,349,350,
366,367,368,369,
442,443,444,445,
461,462,463,464,
480,481,482,483,
499,500,501,502
38,44,45,46,47,
63,64,65,66,
82,83,84,85,
101,102,103,104,
177,178,179,180,
196,197,198,199,
215,216,217,218,
234,235,236,237,
310,311,312,313,
329,330,331,332,
348,349,350,351,
367,368,369,370,
443,444,445,446,
462,463,464,465,
481,482,483,484,
500,501,502,503
39,45,46,47,48,
64,65,66,67,
83,84,85,86,
102,103,104,105,
178,179,180,181,
197,198,199,200,
216,217,218,219,
235,236,237,238,
311,312,313,314,
330,331,332,333,
349,350,351,352,
368,369,370,371,
444,445,446,447,
463,464,465,466,
482,483,484,485,
501,502,503,504
40,46,47,48,49,
65,66,67,68,
84,85,86,87,
103,104,105,106,
179,180,181,182,
198,199,200,201,
217,218,219,220,
236,237,238,239,
312,313,314,315,
331,332,333,334,
350,351,352,353,
369,370,371,372,
445,446,447,448,
464,465,466,467,
483,484,485,486,
502,503,504,505
41,47,48,49,50,
66,67,68,69,
85,86,87,88,
104,105,106,107,
180,181,182,183,
199,200,201,202,
218,219,220,221,
237,238,239,240,
313,314,315,316,
332,333,334,335,
351,352,353,354,
370,371,372,373,
446,447,448,449,
465,466,467,468,
484,485,486,487,
503,504,505,506
42,48,49,50,51,
67,68,69,70,
86,87,88,89,
105,106,107,108,
181,182,183,184,
200,201,202,203,
219,220,221,222,
238,239,240,241,
314,315,316,317,
333,334,335,336,
352,353,354,355,
371,372,373,374,
447,448,449,450,
466,467,468,469,
485,486,487,488,
504,505,506,507
43,49,50,51,52,
68,69,70,71,
87,88,89,90,
106,107,108,109,
182,183,184,185,
201,202,203,204,
220,221,222,223,
239,240,241,242,
315,316,317,318,
334,335,336,337,
353,354,355,356,
372,373,374,375,
448,449,450,451,
467,468,469,470,
486,487,488,489,
505,506,507,508
44,50,51,52,53,
69,70,71,72,
88,89,90,91,
107,108,109,110,
183,184,185,186,
202,203,204,205,
221,222,223,224,
240,241,242,243,
316,317,318,319,
335,336,337,338,
354,355,356,357,
373,374,375,376,
449,450,451,452,
468,469,470,471,
487,488,489,490,
506,507,508,509
45,51,52,53,54,
70,71,72,73,
89,90,91,92,
108,109,110,111,
184,185,186,187,
203,204,205,206,
222,223,224,225,
241,242,243,244,
317,318,319,320,
336,337,338,339,
355,356,357,358,
374,375,376,377,
450,451,452,453,
469,470,471,472,
488,489,490,491,
507,508,509,510
46,52,53,54,55,
71,72,73,74,
90,91,92,93,
109,110,111,112,
185,186,187,188,
204,205,206,207,
223,224,225,226,
242,243,244,245,
318,319,320,321,
337,338,339,340,
356,357,358,359,
375,376,377,378,
451,452,453,454,
470,471,472,473,
489,490,491,492,
508,509,510,511
47,53,54,55,56,
72,73,74,75,
91,92,93,94,
110,111,112,113,
186,187,188,189,
205,206,207,208,
224,225,226,227,
243,244,245,246,
319,320,321,322,
338,339,340,341,
357,358,359,360,
376,377,378,379,
452,453,454,455,
471,472,473,474,
490,491,492,493,
509,510,511,512
48,54,55,56,57,
73,74,75,76,
92,93,94,95,
111,112,113,114,
187,188,189,190,
206,207,208,209,
225,226,227,228,
244,245,246,247,
320,321,322,323,
339,340,341,342,
358,359,360,361,
377,378,379,380,
453,454,455,456,
472,473,474,475,
491,492,493,494,
510,511,512,513
49,58,59,60,61,
77,78,79,80,
96,97,98,99,
115,116,117,118,
191,192,193,194,
210,211,212,213,
229,230,231,232,
248,249,250,251,
324,325,326,327,
343,344,345,346,
362,363,364,365,
381,382,383,384,
457,458,459,460,
476,477,478,479,
495,496,497,498,
514,515,516,517
50,59,60,61,62,
78,79,80,81,
97,98,99,100,
116,117,118,119,
192,193,194,195,
211,212,213,214,
230,231,232,233,
249,250,251,252,
325,326,327,328,
344,345,346,347,
363,364,365,366,
382,383,384,385,
458,459,460,461,
477,478,479,480,
496,497,498,499,
515,516,517,518
51,60,61,62,63,
79,80,81,82,
98,99,100,101,
117,118,119,120,
193,194,195,196,
212,213,214,215,
231,232,233,234,
250,251,252,253,
326,327,328,329,
345,346,347,348,
364,365,366,367,
383,384,385,386,
459,460,461,462,
478,479,480,481,
497,498,499,500,
516,517,518,519
52,61,62,63,64,
80,81,82,83,
99,100,101,102,
118,119,120,121,
194,195,196,197,
213,214,215,216,
232,233,234,235,
251,252,253,254,
327,328,329,330,
346,347,348,349,
365,366,367,368,
384,385,386,387,
460,461,462,463,
479,480,481,482,
498,499,500,501,
517,518,519,520
53,62,63,64,65,
81,82,83,84,
100,101,102,103,
119,120,121,122,
195,196,197,198,
214,215,216,217,
233,234,235,236,
252,253,254,255,
328,329,330,331,
347,348,349,350,
366,367,368,369,
385,386,387,388,
461,462,463,464,
480,481,482,483,
499,500,501,502,
518,519,520,521
54,63,64,65,66,
82,83,84,85,
101,102,103,104,
120,121,122,123,
196,197,198,199,
215,216,217,218,
234,235,236,237,
253,254,255,256,
329,330,331,332,
348,349,350,351,
367,368,369,370,
386,387,388,389,
462,463,464,465,
481,482,483,484,
500,501,502,503,
519,520,521,522
55,64,65,66,67,
83,84,85,86,
102,103,104,105,
121,122,123,124,
197,198,199,200,
216,217,218,219,
235,236,237,238,
254,255,256,257,
330,331,332,333,
349,350,351,352,
368,369,370,371,
387,388,389,390,
463,464,465,466,
482,483,484,485,
501,502,503,504,
520,521,522,523
56,65,66,67,68,
84,85,86,87,
103,104,105,106,
122,123,124,125,
198,199,200,201,
217,218,219,220,
236,237,238,239,
255,256,257,258,
331,332,333,334,
350,351,352,353,
369,370,371,372,
388,389,390,391,
464,465,466,467,
483,484,485,486,
502,503,504,505,
521,522,523,524
57,66,67,68,69,
85,86,87,88,
104,105,106,107,
123,124,125,126,
199,200,201,202,
218,219,220,221,
237,238,239,240,
256,257,258,259,
332,333,334,335,
351,352,353,354,
370,371,372,373,
389,390,391,392,
465,466,467,468,
484,485,486,487,
503,504,505,506,
522,523,524,525
58,67,68,69,70,
86,87,88,89,
105,106,107,108,
124,125,126,127,
200,201,202,203,
219,220,221,222,
238,239,240,241,
257,258,259,260,
333,334,335,336,
352,353,354,355,
371,372,373,374,
390,391,392,393,
466,467,468,469,
485,486,487,488,
504,505,506,507,
523,524,525,526
59,68,69,70,71,
87,88,89,90,
106,107,108,109,
125,126,127,128,
201,202,203,204,
220,221,222,223,
239,240,241,242,
258,259,260,261,
334,335,336,337,
353,354,355,356,
372,373,374,375,
391,392,393,394,
467,468,469,470,
486,487,488,489,
505,506,507,508,
524,525,526,527
60,69,70,71,72,
88,89,90,91,
107,108,109,110,
126,127,128,129,
202,203,204,205,
221,222,223,224,
240,241,242,243,
259,260,261,262,
335,336,337,338,
354,355,356,357,
373,374,375,376,
392,393,394,395,
468,469,470,471,
487,488,489,490,
506,507,508,509,
525,526,527,528
61,70,71,72,73,
89,90,91,92,
108,109,110,111,
127,128,129,130,
203,204,205,206,
222,223,224,225,
241,242,243,244,
260,261,262,263,
336,337,338,339,
355,356,357,358,
374,375,376,377,
393,394,395,396,
469,470,471,472,
488,489,490,491,
507,508,509,510,
526,527,528,529
62,71,72,73,74,
90,91,92,93,
109,110,111,112,
128,129,130,131,
204,205,206,207,
223,224,225,226,
242,243,244,245,
261,262,263,264,
337,338,339,340,
356,357,358,359,
375,376,377,378,
394,395,396,397,
470,471,472,473,
489,490,491,492,
508,509,510,511,
527,528,529,530
63,72,73,74,75,
91,92,93,94,
110,111,112,113,
129,130,131,132,
205,206,207,208,
224,225,226,227,
243,244,245,246,
262,263,264,265,
338,339,340,341,
357,358,359,360,
376,377,378,379,
395,396,397,398,
471,472,473,474,
490,491,492,493,
509,510,511,512,
528,529,530,531
64,73,74,75,76,
92,93,94,95,
111,112,113,114,
130,131,132,133,
206,207,208,209,
225,226,227,228,
244,245,246,247,
263,264,265,266,
339,340,341,342,
358,359,360,361,
377,378,379,380,
396,397,398,399,
472,473,474,475,
491,492,493,494,
510,511,512,513,
529,530,531,532
65,134,135,136,137,
153,154,155,156,
172,173,174,175,
191,192,193,194,
267,268,269,270,
286,287,288,289,
305,306,307,308,
324,325,326,327,
400,401,402,403,
419,420,421,422,
438,439,440,441,
457,458,459,460,
533,534,535,536,
552,553,554,555,
571,572,573,574,
590,591,592,593
66,135,136,137,138,
154,155,156,157,
173,174,175,176,
192,193,194,195,
268,269,270,271,
287,288,289,290,
306,307,308,309,
325,326,327,328,
401,402,403,404,
420,421,422,423,
439,440,441,442,
458,459,460,461,
534,535,536,537,
553,554,555,556,
572,573,574,575,
591,592,593,594
67,136,137,138,139,
155,156,157,158,
174,175,176,177,
193,194,195,196,
269,270,271,272,
288,289,290,291,
307,308,309,310,
326,327,328,329,
402,403,404,405,
421,422,423,424,
440,441,442,443,
459,460,461,462,
535,536,537,538,
554,555,556,557,
573,574,575,576,
592,593,594,595
68,137,138,139,140,
156,157,158,159,
175,176,177,178,
194,195,196,197,
270,271,272,273,
289,290,291,292,
308,309,310,311,
327,328,329,330,
403,404,405,406,
422,423,424,425,
441,442,443,444,
460,461,462,463,
536,537,538,539,
555,556,557,558,
574,575,576,577,
593,594,595,596
69,138,139,140,141,
157,158,159,160,
176,177,178,179,
195,196,197,198,
271,272,273,274,
290,291,292,293,
309,310,311,312,
328,329,330,331,
404,405,406,407,
423,424,425,426,
442,443,444,445,
461,462,463,464,
537,538,539,540,
556,557,558,559,
575,576,577,578,
594,595,596,597
70,139,140,141,142,
158,159,160,161,
177,178,179,180,
196,197,198,199,
272,273,274,275,
291,292,293,294,
310,311,312,313,
329,330,331,332,
405,406,407,408,
424,425,426,427,
443,444,445,446,
462,463,464,465,
538,539,540,541,
557,558,559,560,
576,577,578,579,
595,596,597,598
71,140,141,142,143,
159,160,161,162,
178,179,180,181,
197,198,199,200,
273,274,275,276,
292,293,294,295,
311,312,313,314,
330,331,332,333,
406,407,408,409,
425,426,427,428,
444,445,446,447,
463,464,465,466,
539,540,541,542,
558,559,560,561,
577,578,579,580,
596,597,598,599
72,141,142,143,144,
160,161,162,163,
179,180,181,182,
198,199,200,201,
274,275,276,277,
293,294,295,296,
312,313,314,315,
331,332,333,334,
407,408,409,410,
426,427,428,429,
445,446,447,448,
464,465,466,467,
540,541,542,543,
559,560,561,562,
578,579,580,581,
597,598,599,600
73,142,143,144,145,
161,162,163,164,
180,181,182,183,
199,200,201,202,
275,276,277,278,
294,295,296,297,
313,314,315,316,
332,333,334,335,
408,409,410,411,
427,428,429,430,
446,447,448,449,
465,466,467,468,
541,542,543,544,
560,561,562,563,
579,580,581,582,
598,599,600,601
74,143,144,145,146,
162,163,164,165,
181,182,183,184,
200,201,202,203,
276,277,278,279,
295,296,297,298,
314,315,316,317,
333,334,335,336,
409,410,411,412,
428,429,430,431,
447,448,449,450,
466,467,468,469,
542,543,544,545,
561,562,563,564,
580,581,582,583,
599,600,601,602
75,144,145,146,147,
163,164,165,166,
182,183,184,185,
201,202,203,204,
277,278,279,280,
296,297,298,299,
315,316,317,318,
334,335,336,337,
410,411,412,413,
429,430,431,432,
448,449,450,451,
467,468,469,470,
543,544,545,546,
562,563,564,565,
581,582,583,584,
600,601,602,603
76,145,146,147,148,
164,165,166,167,
183,184,185,186,
202,203,204,205,
278,279,280,281,
297,298,299,300,
316,317,318,319,
335,336,337,338,
411,412,413,414,
430,431,432,433,
449,450,451,452,
468,469,470,471,
544,545,546,547,
563,564,565,566,
582,583,584,585,
601,602,603,604
77,146,147,148,149,
165,166,167,168,
184,185,186,187,
203,204,205,206,
279,280,281,282,
298,299,300,301,
317,318,319,320,
336,337,338,339,
412,413,414,415,
431,432,433,434,
450,451,452,453,
469,470,471,472,
545,546,547,548,
564,565,566,567,
583,584,585,586,
602,603,604,605
78,147,148,149,150,
166,167,168,169,
185,186,187,188,
204,205,206,207,
280,281,282,283,
299,300,301,302,
318,319,320,321,
337,338,339,340,
413,414,415,416,
432,433,434,435,
451,452,453,454,
470,471,472,473,
546,547,548,549,
565,566,567,568,
584,585,586,587,
603,604,605,606
79,148,149,150,151,
167,168,169,170,
186,187,188,189,
205,206,207,208,
281,282,283,284,
300,301,302,303,
319,320,321,322,
338,339,340,341,
414,415,416,417,
433,434,435,436,
452,453,454,455,
471,472,473,474,
547,548,549,550,
566,567,568,569,
585,586,587,588,
604,605,606,607
80,149,150,151,152,
168,169,170,171,
187,188,189,190,
206,207,208,209,
282,283,284,285,
301,302,303,304,
320,321,322,323,
339,340,341,342,
415,416,417,418,
434,435,436,437,
453,454,455,456,
472,473,474,475,
548,549,550,551,
567,568,569,570,
586,587,588,589,
605,606,607,608
81,153,154,155,156,
172,173,174,175,
191,192,193,194,
210,211,212,213,
286,287,288,289,
305,306,307,308,
324,325,326,327,
343,344,345,346,
419,420,421,422,
438,439,440,441,
457,458,459,460,
476,477,478,479,
552,553,554,555,
571,572,573,574,
590,591,592,593,
609,610,611,612
82,154,155,156,157,
173,174,175,176,
192,193,194,195,
211,212,213,214,
287,288,289,290,
306,307,308,309,
325,326,327,328,
344,345,346,347,
420,421,422,423,
439,440,441,442,
458,459,460,461,
477,478,479,480,
553,554,555,556,
572,573,574,575,
591,592,593,594,
610,611,612,613
83,155,156,157,158,
174,175,176,177,
193,194,195,196,
212,213,214,215,
288,289,290,291,
307,308,309,310,
326,327,328,329,
345,346,347,348,
421,422,423,424,
440,441,442,443,
459,460,461,462,
478,479,480,481,
554,555,556,557,
573,574,575,576,
592,593,594,595,
611,612,613,614
84,156,157,158,159,
175,176,177,178,
194,195,196,197,
213,214,215,216,
289,290,291,292,
308,309,310,311,
327,328,329,330,
346,347,348,349,
422,423,424,425,
441,442,443,444,
460,461,462,463,
479,480,481,482,
555,556,557,558,
574,575,576,577,
593,594,595,596,
612,613,614,615
85,157,158,159,160,
176,177,178,179,
195,196,197,198,
214,215,216,217,
290,291,292,293,
309,310,311,312,
328,329,330,331,
347,348,349,350,
423,424,425,426,
442,443,444,445,
461,462,463,464,
480,481,482,483,
556,557,558,559,
575,576,577,578,
594,595,596,597,
613,614,615,616
86,158,159,160,161,
177,178,179,180,
196,197,198,199,
215,216,217,218,
291,292,293,294,
310,311,312,313,
329,330,331,332,
348,349,350,351,
424,425,426,427,
443,444,445,446,
462,463,464,465,
481,482,483,484,
557,558,559,560,
576,577,578,579,
595,596,597,598,
614,615,616,617
87,159,160,161,162,
178,179,180,181,
197,198,199,200,
216,217,218,219,
292,293,294,295,
311,312,313,314,
330,331,332,333,
349,350,351,352,
425,426,427,428,
444,445,446,447,
463,464,465,466,
482,483,484,485,
558,559,560,561,
577,578,579,580,
596,597,598,599,
615,616,617,618
88,160,161,162,163,
179,180,181,182,
198,199,200,201,
217,218,219,220,
293,294,295,296,
312,313,314,315,
331,332,333,334,
350,351,352,353,
426,427,428,429,
445,446,447,448,
464,465,466,467,
483,484,485,486,
559,560,561,562,
578,579,580,581,
597,598,599,600,
616,617,618,619
89,161,162,163,164,
180,181,182,183,
199,200,201,202,
218,219,220,221,
294,295,296,297,
313,314,315,316,
332,333,334,335,
351,352,353,354,
427,428,429,430,
446,447,448,449,
465,466,467,468,
484,485,486,487,
560,561,562,563,
579,580,581,582,
598,599,600,601,
617,618,619,620
90,162,163,164,165,
181,182,183,184,
200,201,202,203,
219,220,221,222,
295,296,297,298,
314,315,316,317,
333,334,335,336,
352,353,354,355,
428,429,430,431,
447,448,449,450,
466,467,468,469,
485,486,487,488,
561,562,563,564,
580,581,582,583,
599,600,601,602,
618,619,620,621
91,163,164,165,166,
182,183,184,185,
201,202,203,204,
220,221,222,223,
296,297,298,299,
315,316,317,318,
334,335,336,337,
353,354,355,356,
429,430,431,432,
448,449,450,451,
467,468,469,470,
486,487,488,489,
562,563,564,565,
581,582,583,584,
600,601,602,603,
619,620,621,622
92,164,165,166,167,
183,184,185,186,
202,203,204,205,
221,222,223,224,
297,298,299,300,
316,317,318,319,
335,336,337,338,
354,355,356,357,
430,431,432,433,
449,450,451,452,
468,469,470,471,
487,488,489,490,
563,564,565,566,
582,583,584,585,
601,602,603,604,
620,621,622,623
93,165,166,167,168,
184,185,186,187,
203,204,205,206,
222,223,224,225,
298,299,300,301,
317,318,319,320,
336,337,338,339,
355,356,357,358,
431,432,433,434,
450,451,452,453,
469,470,471,472,
488,489,490,491,
564,565,566,567,
583,584,585,586,
602,603,604,605,
621,622,623,624
94,166,167,168,169,
185,186,187,188,
204,205,206,207,
223,224,225,226,
299,300,301,302,
318,319,320,321,
337,338,339,340,
356,357,358,359,
432,433,434,435,
451,452,453,454,
470,471,472,473,
489,490,491,492,
565,566,567,568,
584,585,586,587,
603,604,605,606,
622,623,624,625
95,167,168,169,170,
186,187,188,189,
205,206,207,208,
224,225,226,227,
300,301,302,303,
319,320,321,322,
338,339,340,341,
357,358,359,360,
433,434,435,436,
452,453,454,455,
471,472,473,474,
490,491,492,493,
566,567,568,569,
585,586,587,588,
604,605,606,607,
623,624,625,626
96,168,169,170,171,
187,188,189,190,
206,207,208,209,
225,226,227,228,
301,302,303,304,
320,321,322,323,
339,340,341,342,
358,359,360,361,
434,435,436,437,
453,454,455,456,
472,473,474,475,
491,492,493,494,
567,568,569,570,
586,587,588,589,
605,606,607,608,
624,625,626,627
97,172,173,174,175,
191,192,193,194,
210,211,212,213,
229,230,231,232,
305,306,307,308,
324,325,326,327,
343,344,345,346,
362,363,364,365,
438,439,440,441,
457,458,459,460,
476,477,478,479,
495,496,497,498,
571,572,573,574,
590,591,592,593,
609,610,611,612,
628,629,630,631
98,173,174,175,176,
192,193,194,195,
211,212,213,214,
230,231,232,233,
306,307,308,309,
325,326,327,328,
344,345,346,347,
363,364,365,366,
439,440,441,442,
458,459,460,461,
477,478,479,480,
496,497,498,499,
572,573,574,575,
591,592,593,594,
610,611,612,613,
629,630,631,632
99,174,175,176,177,
193,194,195,196,
212,213,214,215,
231,232,233,234,
307,308,309,310,
326,327,328,329,
345,346,347,348,
364,365,366,367,
440,441,442,443,
459,460,461,462,
478,479,480,481,
497,498,499,500,
573,574,575,576,
592,593,594,595,
611,612,613,614,
630,631,632,633
100,175,176,177,178,
194,195,196,197,
213,214,215,216,
232,233,234,235,
308,309,310,311,
327,328,329,330,
346,347,348,349,
365,366,367,368,
441,442,443,444,
460,461,462,463,
479,480,481,482,
498,499,500,501,
574,575,576,577,
593,594,595,596,
612,613,614,615,
631,632,633,634
101,176,177,178,179,
195,196,197,198,
214,215,216,217,
233,234,235,236,
309,310,311,312,
328,329,330,331,
347,348,349,350,
366,367,368,369,
442,443,444,445,
461,462,463,464,
480,481,482,483,
499,500,501,502,
575,576,577,578,
594,595,596,597,
613,614,615,616,
632,633,634,635
102,177,178,179,180,
196,197,198,199,
215,216,217,218,
234,235,236,237,
310,311,312,313,
329,330,331,332,
348,349,350,351,
367,368,369,370,
443,444,445,446,
462,463,464,465,
481,482,483,484,
500,501,502,503,
576,577,578,579,
595,596,597,598,
614,615,616,617,
633,634,635,636
103,178,179,180,181,
197,198,199,200,
216,217,218,219,
235,236,237,238,
311,312,313,314,
330,331,332,333,
349,350,351,352,
368,369,370,371,
444,445,446,447,
463,464,465,466,
482,483,484,485,
501,502,503,504,
577,578,579,580,
596,597,598,599,
615,616,617,618,
634,635,636,637
104,179,180,181,182,
198,199,200,201,
217,218,219,220,
236,237,238,239,
312,313,314,315,
331,332,333,334,
350,351,352,353,
369,370,371,372,
445,446,447,448,
464,465,466,467,
483,484,485,486,
502,503,504,505,
578,579,580,581,
597,598,599,600,
616,617,618,619,
635,636,637,638
105,180,181,182,183,
199,200,201,202,
218,219,220,221,
237,238,239,240,
313,314,315,316,
332,333,334,335,
351,352,353,354,
370,371,372,373,
446,447,448,449,
465,466,467,468,
484,485,486,487,
503,504,505,506,
579,580,581,582,
598,599,600,601,
617,618,619,620,
636,637,638,639
106,181,182,183,184,
200,201,202,203,
219,220,221,222,
238,239,240,241,
314,315,316,317,
333,334,335,336,
352,353,354,355,
371,372,373,374,
447,448,449,450,
466,467,468,469,
485,486,487,488,
504,505,506,507,
580,581,582,583,
599,600,601,602,
618,619,620,621,
637,638,639,640
107,182,183,184,185,
201,202,203,204,
220,221,222,223,
239,240,241,242,
315,316,317,318,
334,335,336,337,
353,354,355,356,
372,373,374,375,
448,449,450,451,
467,468,469,470,
486,487,488,489,
505,506,507,508,
581,582,583,584,
600,601,602,603,
619,620,621,622,
638,639,640,641
108,183,184,185,186,
202,203,204,205,
221,222,223,224,
240,241,242,243,
316,317,318,319,
335,336,337,338,
354,355,356,357,
373,374,375,376,
449,450,451,452,
468,469,470,471,
487,488,489,490,
506,507,508,509,
582,583,584,585,
601,602,603,604,
620,621,622,623,
639,640,641,642
109,184,185,186,187,
203,204,205,206,
222,223,224,225,
241,242,243,244,
317,318,319,320,
336,337,338,339,
355,356,357,358,
374,375,376,377,
450,451,452,453,
469,470,471,472,
488,489,490,491,
507,508,509,510,
583,584,585,586,
602,603,604,605,
621,622,623,624,
640,641,642,643
110,185,186,187,188,
204,205,206,207,
223,224,225,226,
242,243,244,245,
318,319,320,321,
337,338,339,340,
356,357,358,359,
375,376,377,378,
451,452,453,454,
470,471,472,473,
489,490,491,492,
508,509,510,511,
584,585,586,587,
603,604,605,606,
622,623,624,625,
641,642,643,644
111,186,187,188,189,
205,206,207,208,
224,225,226,227,
243,244,245,246,
319,320,321,322,
338,339,340,341,
357,358,359,360,
376,377,378,379,
452,453,454,455,
471,472,473,474,
490,491,492,493,
509,510,511,512,
585,586,587,588,
604,605,606,607,
623,624,625,626,
642,643,644,645
112,187,188,189,190,
206,207,208,209,
225,226,227,228,
244,245,246,247,
320,321,322,323,
339,340,341,342,
358,359,360,361,
377,378,379,380,
453,454,455,456,
472,473,474,475,
491,492,493,494,
510,511,512,513,
586,587,588,589,
605,606,607,608,
624,625,626,627,
643,644,645,646
113,191,192,193,194,
210,211,212,213,
229,230,231,232,
248,249,250,251,
324,325,326,327,
343,344,345,346,
362,363,364,365,
381,382,383,384,
457,458,459,460,
476,477,478,479,
495,496,497,498,
514,515,516,517,
590,591,592,593,
609,610,611,612,
628,629,630,631,
647,648,649,650
114,192,193,194,195,
211,212,213,214,
230,231,232,233,
249,250,251,252,
325,326,327,328,
344,345,346,347,
363,364,365,366,
382,383,384,385,
458,459,460,461,
477,478,479,480,
496,497,498,499,
515,516,517,518,
591,592,593,594,
610,611,612,613,
629,630,631,632,
648,649,650,651
115,193,194,195,196,
212,213,214,215,
231,232,233,234,
250,251,252,253,
326,327,328,329,
345,346,347,348,
364,365,366,367,
383,384,385,386,
459,460,461,462,
478,479,480,481,
497,498,499,500,
516,517,518,519,
592,593,594,595,
611,612,613,614,
630,631,632,633,
649,650,651,652
116,194,195,196,197,
213,214,215,216,
232,233,234,235,
251,252,253,254,
327,328,329,330,
346,347,348,349,
365,366,367,368,
384,385,386,387,
460,461,462,463,
479,480,481,482,
498,499,500,501,
517,518,519,520,
593,594,595,596,
612,613,614,615,
631,632,633,634,
650,651,652,653
117,195,196,197,198,
214,215,216,217,
233,234,235,236,
252,253,254,255,
328,329,330,331,
347,348,349,350,
366,367,368,369,
385,386,387,388,
461,462,463,464,
480,481,482,483,
499,500,501,502,
518,519,520,521,
594,595,596,597,
613,614,615,616,
632,633,634,635,
651,652,653,654
118,196,197,198,199,
215,216,217,218,
234,235,236,237,
253,254,255,256,
329,330,331,332,
348,349,350,351,
367,368,369,370,
386,387,388,389,
462,463,464,465,
481,482,483,484,
500,501,502,503,
519,520,521,522,
595,596,597,598,
614,615,616,617,
633,634,635,636,
652,653,654,655
119,197,198,199,200,
216,217,218,219,
235,236,237,238,
254,255,256,257,
330,331,332,333,
349,350,351,352,
368,369,370,371,
387,388,389,390,
463,464,465,466,
482,483,484,485,
501,502,503,504,
520,521,522,523,
596,597,598,599,
615,616,617,618,
634,635,636,637,
653,654,655,656
120,198,199,200,201,
217,218,219,220,
236,237,238,239,
255,256,257,258,
331,332,333,334,
350,351,352,353,
369,370,371,372,
388,389,390,391,
464,465,466,467,
483,484,485,486,
502,503,504,505,
521,522,523,524,
597,598,599,600,
616,617,618,619,
635,636,637,638,
654,655,656,657
121,199,200,201,202,
218,219,220,221,
237,238,239,240,
256,257,258,259,
332,333,334,335,
351,352,353,354,
370,371,372,373,
389,390,391,392,
465,466,467,468,
484,485,486,487,
503,504,505,506,
522,523,524,525,
598,599,600,601,
617,618,619,620,
636,637,638,639,
655,656,657,658
122,200,201,202,203,
219,220,221,222,
238,239,240,241,
257,258,259,260,
333,334,335,336,
352,353,354,355,
371,372,373,374,
390,391,392,393,
466,467,468,469,
485,486,487,488,
504,505,506,507,
523,524,525,526,
599,600,601,602,
618,619,620,621,
637,638,639,640,
656,657,658,659
123,201,202,203,204,
220,221,222,223,
239,240,241,242,
258,259,260,261,
334,335,336,337,
353,354,355,356,
372,373,374,375,
391,392,393,394,
467,468,469,470,
486,487,488,489,
505,506,507,508,
524,525,526,527,
600,601,602,603,
619,620,621,622,
638,639,640,641,
657,658,659,660
124,202,203,204,205,
221,222,223,224,
240,241,242,243,
259,260,261,262,
335,336,337,338,
354,355,356,357,
373,374,375,376,
392,393,394,395,
468,469,470,471,
487,488,489,490,
506,507,508,509,
525,526,527,528,
601,602,603,604,
620,621,622,623,
639,640,641,642,
658,659,660,661
125,203,204,205,206,
222,223,224,225,
241,242,243,244,
260,261,262,263,
336,337,338,339,
355,356,357,358,
374,375,376,377,
393,394,395,396,
469,470,471,472,
488,489,490,491,
507,508,509,510,
526,527,528,529,
602,603,604,605,
621,622,623,624,
640,641,642,643,
659,660,661,662
126,204,205,206,207,
223,224,225,226,
242,243,244,245,
261,262,263,264,
337,338,339,340,
356,357,358,359,
375,376,377,378,
394,395,396,397,
470,471,472,473,
489,490,491,492,
508,509,510,511,
527,528,529,530,
603,604,605,606,
622,623,624,625,
641,642,643,644,
660,661,662,663
127,205,206,207,208,
224,225,226,227,
243,244,245,246,
262,263,264,265,
338,339,340,341,
357,358,359,360,
376,377,378,379,
395,396,397,398,
471,472,473,474,
490,491,492,493,
509,510,511,512,
528,529,530,531,
604,605,606,607,
623,624,625,626,
642,643,644,645,
661,662,663,664
128,206,207,208,209,
225,226,227,228,
244,245,246,247,
263,264,265,266,
339,340,341,342,
358,359,360,361,
377,378,379,380,
396,397,398,399,
472,473,474,475,
491,492,493,494,
510,511,512,513,
529,530,531,532,
605,606,607,608,
624,625,626,627,
643,644,645,646,
662,663,664,665
129,267,268,269,270,
286,287,288,289,
305,306,307,308,
324,325,326,327,
400,401,402,403,
419,420,421,422,
438,439,440,441,
457,458,459,460,
533,534,535,536,
552,553,554,555,
571,572,573,574,
590,591,592,593,
666,667,668,669,
685,686,687,688,
704,705,706,707,
723,724,725,726
130,268,269,270,271,
287,288,289,290,
306,307,308,309,
325,326,327,328,
401,402,403,404,
420,421,422,423,
439,440,441,442,
458,459,460,461,
534,535,536,537,
553,554,555,556,
572,573,574,575,
591,592,593,594,
667,668,669,670,
686,687,688,689,
705,706,707,708,
724,725,726,727
131,269,270,271,272,
288,289,290,291,
307,308,309,310,
326,327,328,329,
402,403,404,405,
421,422,423,424,
440,441,442,443,
459,460,461,462,
535,536,537,538,
554,555,556,557,
573,574,575,576,
592,593,594,595,
668,669,670,671,
687,688,689,690,
706,707,708,709,
725,726,727,728
132,270,271,272,273,
289,290,291,292,
308,309,310,311,
327,328,329,330,
403,404,405,406,
422,423,424,425,
441,442,443,444,
460,461,462,463,
536,537,538,539,
555,556,557,558,
574,575,576,577,
593,594,595,596,
669,670,671,672,
688,689,690,691,
707,708,709,710,
726,727,728,729
133,271,272,273,274,
290,291,292,293,
309,310,311,312,
328,329,330,331,
404,405,406,407,
423,424,425,426,
442,443,444,445,
461,462,463,464,
537,538,539,540,
556,557,558,559,
575,576,577,578,
594,595,596,597,
670,671,672,673,
689,690,691,692,
708,709,710,711,
727,728,729,730
134,272,273,274,275,
291,292,293,294,
310,311,312,313,
329,330,331,332,
405,406,407,408,
424,425,426,427,
443,444,445,446,
462,463,464,465,
538,539,540,541,
557,558,559,560,
576,577,578,579,
595,596,597,598,
671,672,673,674,
690,691,692,693,
709,710,711,712,
728,729,730,731
135,273,274,275,276,
292,293,294,295,
311,312,313,314,
330,331,332,333,
406,407,408,409,
425,426,427,428,
444,445,446,447,
463,464,465,466,
539,540,541,542,
558,559,560,561,
577,578,579,580,
596,597,598,599,
672,673,674,675,
691,692,693,694,
710,711,712,713,
729,730,731,732
136,274,275,276,277,
293,294,295,296,
312,313,314,315,
331,332,333,334,
407,408,409,410,
426,427,428,429,
445,446,447,448,
464,465,466,467,
540,541,542,543,
559,560,561,562,
578,579,580,581,
597,598,599,600,
673,674,675,676,
692,693,694,695,
711,712,713,714,
730,731,732,733
137,275,276,277,278,
294,295,296,297,
313,314,315,316,
332,333,334,335,
408,409,410,411,
427,428,429,430,
446,447,448,449,
465,466,467,468,
541,542,543,544,
560,561,562,563,
579,580,581,582,
598,599,600,601,
674,675,676,677,
693,694,695,696,
712,713,714,715,
731,732,733,734
138,276,277,278,279,
295,296,297,298,
314,315,316,317,
333,334,335,336,
409,410,411,412,
428,429,430,431,
447,448,449,450,
466,467,468,469,
542,543,544,545,
561,562,563,564,
580,581,582,583,
599,600,601,602,
675,676,677,678,
694,695,696,697,
713,714,715,716,
732,733,734,735
139,277,278,279,280,
296,297,298,299,
315,316,317,318,
334,335,336,337,
410,411,412,413,
429,430,431,432,
448,449,450,451,
467,468,469,470,
543,544,545,546,
562,563,564,565,
581,582,583,584,
600,601,602,603,
676,677,678,679,
695,696,697,698,
714,715,716,717,
733,734,735,736
140,278,279,280,281,
297,298,299,300,
316,317,318,319,
335,336,337,338,
411,412,413,414,
430,431,432,433,
449,450,451,452,
468,469,470,471,
544,545,546,547,
563,564,565,566,
582,583,584,585,
601,602,603,604,
677,678,679,680,
696,697,698,699,
715,716,717,718,
734,735,736,737
141,279,280,281,282,
298,299,300,301,
317,318,319,320,
336,337,338,339,
412,413,414,415,
431,432,433,434,
450,451,452,453,
469,470,471,472,
545,546,547,548,
564,565,566,567,
583,584,585,586,
602,603,604,605,
678,679,680,681,
697,698,699,700,
716,717,718,719,
735,736,737,738
142,280,281,282,283,
299,300,301,302,
318,319,320,321,
337,338,339,340,
413,414,415,416,
432,433,434,435,
451,452,453,454,
470,471,472,473,
546,547,548,549,
565,566,567,568,
584,585,586,587,
603,604,605,606,
679,680,681,682,
698,699,700,701,
717,718,719,720,
736,737,738,739
143,281,282,283,284,
300,301,302,303,
319,320,321,322,
338,339,340,341,
414,415,416,417,
433,434,435,436,
452,453,454,455,
471,472,473,474,
547,548,549,550,
566,567,568,569,
585,586,587,588,
604,605,606,607,
680,681,682,683,
699,700,701,702,
718,719,720,721,
737,738,739,740
144,282,283,284,285,
301,302,303,304,
320,321,322,323,
339,340,341,342,
415,416,417,418,
434,435,436,437,
453,454,455,456,
472,473,474,475,
548,549,550,551,
567,568,569,570,
586,587,588,589,
605,606,607,608,
681,682,683,684,
700,701,702,703,
719,720,721,722,
738,739,740,741
145,286,287,288,289,
305,306,307,308,
324,325,326,327,
343,344,345,346,
419,420,421,422,
438,439,440,441,
457,458,459,460,
476,477,478,479,
552,553,554,555,
571,572,573,574,
590,591,592,593,
609,610,611,612,
685,686,687,688,
704,705,706,707,
723,724,725,726,
742,743,744,745
146,287,288,289,290,
306,307,308,309,
325,326,327,328,
344,345,346,347,
420,421,422,423,
439,440,441,442,
458,459,460,461,
477,478,479,480,
553,554,555,556,
572,573,574,575,
591,592,593,594,
610,611,612,613,
686,687,688,689,
705,706,707,708,
724,725,726,727,
743,744,745,746
147,288,289,290,291,
307,308,309,310,
326,327,328,329,
345,346,347,348,
421,422,423,424,
440,441,442,443,
459,460,461,462,
478,479,480,481,
554,555,556,557,
573,574,575,576,
592,593,594,595,
611,612,613,614,
687,688,689,690,
706,707,708,709,
725,726,727,728,
744,745,746,747
148,289,290,291,292,
308,309,310,311,
327,328,329,330,
346,347,348,349,
422,423,424,425,
441,442,443,444,
460,461,462,463,
479,480,481,482,
555,556,557,558,
574,575,576,577,
593,594,595,596,
612,613,614,615,
688,689,690,691,
707,708,709,710,
726,727,728,729,
745,746,747,748
149,290,291,292,293,
309,310,311,312,
328,329,330,331,
347,348,349,350,
423,424,425,426,
442,443,444,445,
461,462,463,464,
480,481,482,483,
556,557,558,559,
575,576,577,578,
594,595,596,597,
613,614,615,616,
689,690,691,692,
708,709,710,711,
727,728,729,730,
746,747,748,749
150,291,292,293,294,
310,311,312,313,
329,330,331,332,
348,349,350,351,
424,425,426,427,
443,444,445,446,
462,463,464,465,
481,482,483,484,
557,558,559,560,
576,577,578,579,
595,596,597,598,
614,615,616,617,
690,691,692,693,
709,710,711,712,
728,729,730,731,
747,748,749,750
151,292,293,294,295,
311,312,313,314,
330,331,332,333,
349,350,351,352,
425,426,427,428,
444,445,446,447,
463,464,465,466,
482,483,484,485,
558,559,560,561,
577,578,579,580,
596,597,598,599,
615,616,617,618,
691,692,693,694,
710,711,712,713,
729,730,731,732,
748,749,750,751
152,293,294,295,296,
312,313,314,315,
331,332,333,334,
350,351,352,353,
426,427,428,429,
445,446,447,448,
464,465,466,467,
483,484,485,486,
559,560,561,562,
578,579,580,581,
597,598,599,600,
616,617,618,619,
692,693,694,695,
711,712,713,714,
730,731,732,733,
749,750,751,752
153,294,295,296,297,
313,314,315,316,
332,333,334,335,
351,352,353,354,
427,428,429,430,
446,447,448,449,
465,466,467,468,
484,485,486,487,
560,561,562,563,
579,580,581,582,
598,599,600,601,
617,618,619,620,
693,694,695,696,
712,713,714,715,
731,732,733,734,
750,751,752,753
154,295,296,297,298,
314,315,316,317,
333,334,335,336,
352,353,354,355,
428,429,430,431,
447,448,449,450,
466,467,468,469,
485,486,487,488,
561,562,563,564,
580,581,582,583,
599,600,601,602,
618,619,620,621,
694,695,696,697,
713,714,715,716,
732,733,734,735,
751,752,753,754
155,296,297,298,299,
315,316,317,318,
334,335,336,337,
353,354,355,356,
429,430,431,432,
448,449,450,451,
467,468,469,470,
486,487,488,489,
562,563,564,565,
581,582,583,584,
600,601,602,603,
619,620,621,622,
695,696,697,698,
714,715,716,717,
733,734,735,736,
752,753,754,755
156,297,298,299,300,
316,317,318,319,
335,336,337,338,
354,355,356,357,
430,431,432,433,
449,450,451,452,
468,469,470,471,
487,488,489,490,
563,564,565,566,
582,583,584,585,
601,602,603,604,
620,621,622,623,
696,697,698,699,
715,716,717,718,
734,735,736,737,
753,754,755,756
157,298,299,300,301,
317,318,319,320,
336,337,338,339,
355,356,357,358,
431,432,433,434,
450,451,452,453,
469,470,471,472,
488,489,490,491,
564,565,566,567,
583,584,585,586,
602,603,604,605,
621,622,623,624,
697,698,699,700,
716,717,718,719,
735,736,737,738,
754,755,756,757
158,299,300,301,302,
318,319,320,321,
337,338,339,340,
356,357,358,359,
432,433,434,435,
451,452,453,454,
470,471,472,473,
489,490,491,492,
565,566,567,568,
584,585,586,587,
603,604,605,606,
622,623,624,625,
698,699,700,701,
717,718,719,720,
736,737,738,739,
755,756,757,758
159,300,301,302,303,
319,320,321,322,
338,339,340,341,
357,358,359,360,
433,434,435,436,
452,453,454,455,
471,472,473,474,
490,491,492,493,
566,567,568,569,
585,586,587,588,
604,605,606,607,
623,624,625,626,
699,700,701,702,
718,719,720,721,
737,738,739,740,
756,757,758,759
160,301,302,303,304,
320,321,322,323,
339,340,341,342,
358,359,360,361,
434,435,436,437,
453,454,455,456,
472,473,474,475,
491,492,493,494,
567,568,569,570,
586,587,588,589,
605,606,607,608,
624,625,626,627,
700,701,702,703,
719,720,721,722,
738,739,740,741,
757,758,759,760
161,305,306,307,308,
324,325,326,327,
343,344,345,346,
362,363,364,365,
438,439,440,441,
457,458,459,460,
476,477,478,479,
495,496,497,498,
571,572,573,574,
590,591,592,593,
609,610,611,612,
628,629,630,631,
704,705,706,707,
723,724,725,726,
742,743,744,745,
761,762,763,764
162,306,307,308,309,
325,326,327,328,
344,345,346,347,
363,364,365,366,
439,440,441,442,
458,459,460,461,
477,478,479,480,
496,497,498,499,
572,573,574,575,
591,592,593,594,
610,611,612,613,
629,630,631,632,
705,706,707,708,
724,725,726,727,
743,744,745,746,
762,763,764,765
163,307,308,309,310,
326,327,328,329,
345,346,347,348,
364,365,366,367,
440,441,442,443,
459,460,461,462,
478,479,480,481,
497,498,499,500,
573,574,575,576,
592,593,594,595,
611,612,613,614,
630,631,632,633,
706,707,708,709,
725,726,727,728,
744,745,746,747,
763,764,765,766
164,308,309,310,311,
327,328,329,330,
346,347,348,349,
365,366,367,368,
441,442,443,444,
460,461,462,463,
479,480,481,482,
498,499,500,501,
574,575,576,577,
593,594,595,596,
612,613,614,615,
631,632,633,634,
707,708,709,710,
726,727,728,729,
745,746,747,748,
764,765,766,767
165,309,310,311,312,
328,329,330,331,
347,348,349,350,
366,367,368,369,
442,443,444,445,
461,462,463,464,
480,481,482,483,
499,500,501,502,
575,576,577,578,
594,595,596,597,
613,614,615,616,
632,633,634,635,
708,709,710,711,
727,728,729,730,
746,747,748,749,
765,766,767,768
166,310,311,312,313,
329,330,331,332,
348,349,350,351,
367,368,369,370,
443,444,445,446,
462,463,464,465,
481,482,483,484,
500,501,502,503,
576,577,578,579,
595,596,597,598,
614,615,616,617,
633,634,635,636,
709,710,711,712,
728,729,730,731,
747,748,749,750,
766,767,768,769
167,311,312,313,314,
330,331,332,333,
349,350,351,352,
368,369,370,371,
444,445,446,447,
463,464,465,466,
482,483,484,485,
501,502,503,504,
577,578,579,580,
596,597,598,599,
615,616,617,618,
634,635,636,637,
710,711,712,713,
729,730,731,732,
748,749,750,751,
767,768,769,770
168,312,313,314,315,
331,332,333,334,
350,351,352,353,
369,370,371,372,
445,446,447,448,
464,465,466,467,
483,484,485,486,
502,503,504,505,
578,579,580,581,
597,598,599,600,
616,617,618,619,
635,636,637,638,
711,712,713,714,
730,731,732,733,
749,750,751,752,
768,769,770,771
169,313,314,315,316,
332,333,334,335,
351,352,353,354,
370,371,372,373,
446,447,448,449,
465,466,467,468,
484,485,486,487,
503,504,505,506,
579,580,581,582,
598,599,600,601,
617,618,619,620,
636,637,638,639,
712,713,714,715,
731,732,733,734,
750,751,752,753,
769,770,771,772
170,314,315,316,317,
333,334,335,336,
352,353,354,355,
371,372,373,374,
447,448,449,450,
466,467,468,469,
485,486,487,488,
504,505,506,507,
580,581,582,583,
599,600,601,602,
618,619,620,621,
637,638,639,640,
713,714,715,716,
732,733,734,735,
751,752,753,754,
770,771,772,773
171,315,316,317,318,
334,335,336,337,
353,354,355,356,
372,373,374,375,
448,449,450,451,
467,468,469,470,
486,487,488,489,
505,506,507,508,
581,582,583,584,
600,601,602,603,
619,620,621,622,
638,639,640,641,
714,715,716,717,
733,734,735,736,
752,753,754,755,
771,772,773,774
172,316,317,318,319,
335,336,337,338,
354,355,356,357,
373,374,375,376,
449,450,451,452,
468,469,470,471,
487,488,489,490,
506,507,508,509,
582,583,584,585,
601,602,603,604,
620,621,622,623,
639,640,641,642,
715,716,717,718,
734,735,736,737,
753,754,755,756,
772,773,774,775
173,317,318,319,320,
336,337,338,339,
355,356,357,358,
374,375,376,377,
450,451,452,453,
469,470,471,472,
488,489,490,491,
507,508,509,510,
583,584,585,586,
602,603,604,605,
621,622,623,624,
640,641,642,643,
716,717,718,719,
735,736,737,738,
754,755,756,757,
773,774,775,776
174,318,319,320,321,
337,338,339,340,
356,357,358,359,
375,376,377,378,
451,452,453,454,
470,471,472,473,
489,490,491,492,
508,509,510,511,
584,585,586,587,
603,604,605,606,
622,623,624,625,
641,642,643,644,
717,718,719,720,
736,737,738,739,
755,756,757,758,
774,775,776,777
175,319,320,321,322,
338,339,340,341,
357,358,359,360,
376,377,378,379,
452,453,454,455,
471,472,473,474,
490,491,492,493,
509,510,511,512,
585,586,587,588,
604,605,606,607,
623,624,625,626,
642,643,644,645,
718,719,720,721,
737,738,739,740,
756,757,758,759,
775,776,777,778
176,320,321,322,323,
339,340,341,342,
358,359,360,361,
377,378,379,380,
453,454,455,456,
472,473,474,475,
491,492,493,494,
510,511,512,513,
586,587,588,589,
605,606,607,608,
624,625,626,627,
643,644,645,646,
719,720,721,722,
738,739,740,741,
757,758,759,760,
776,777,778,779
177,324,325,326,327,
343,344,345,346,
362,363,364,365,
381,382,383,384,
457,458,459,460,
476,477,478,479,
495,496,497,498,
514,515,516,517,
590,591,592,593,
609,610,611,612,
628,629,630,631,
647,648,649,650,
723,724,725,726,
742,743,744,745,
761,762,763,764,
780,781,782,783
178,325,326,327,328,
344,345,346,347,
363,364,365,366,
382,383,384,385,
458,459,460,461,
477,478,479,480,
496,497,498,499,
515,516,517,518,
591,592,593,594,
610,611,612,613,
629,630,631,632,
648,649,650,651,
724,725,726,727,
743,744,745,746,
762,763,764,765,
781,782,783,784
179,326,327,328,329,
345,346,347,348,
364,365,366,367,
383,384,385,386,
459,460,461,462,
478,479,480,481,
497,498,499,500,
516,517,518,519,
592,593,594,595,
611,612,613,614,
630,631,632,633,
649,650,651,652,
725,726,727,728,
744,745,746,747,
763,764,765,766,
782,783,784,785
180,327,328,329,330,
346,347,348,349,
365,366,367,368,
384,385,386,387,
460,461,462,463,
479,480,481,482,
498,499,500,501,
517,518,519,520,
593,594,595,596,
612,613,614,615,
631,632,633,634,
650,651,652,653,
726,727,728,729,
745,746,747,748,
764,765,766,767,
783,784,785,786
181,328,329,330,331,
347,348,349,350,
366,367,368,369,
385,386,387,388,
461,462,463,464,
480,481,482,483,
499,500,501,502,
518,519,520,521,
594,595,596,597,
613,614,615,616,
632,633,634,635,
651,652,653,654,
727,728,729,730,
746,747,748,749,
765,766,767,768,
784,785,786,787
182,329,330,331,332,
348,349,350,351,
367,368,369,370,
386,387,388,389,
462,463,464,465,
481,482,483,484,
500,501,502,503,
519,520,521,522,
595,596,597,598,
614,615,616,617,
633,634,635,636,
652,653,654,655,
728,729,730,731,
747,748,749,750,
766,767,768,769,
785,786,787,788
183,330,331,332,333,
349,350,351,352,
368,369,370,371,
387,388,389,390,
463,464,465,466,
482,483,484,485,
501,502,503,504,
520,521,522,523,
596,597,598,599,
615,616,617,618,
634,635,636,637,
653,654,655,656,
729,730,731,732,
748,749,750,751,
767,768,769,770,
786,787,788,789
184,331,332,333,334,
350,351,352,353,
369,370,371,372,
388,389,390,391,
464,465,466,467,
483,484,485,486,
502,503,504,505,
521,522,523,524,
597,598,599,600,
616,617,618,619,
635,636,637,638,
654,655,656,657,
730,731,732,733,
749,750,751,752,
768,769,770,771,
787,788,789,790
185,332,333,334,335,
351,352,353,354,
370,371,372,373,
389,390,391,392,
465,466,467,468,
484,485,486,487,
503,504,505,506,
522,523,524,525,
598,599,600,601,
617,618,619,620,
636,637,638,639,
655,656,657,658,
731,732,733,734,
750,751,752,753,
769,770,771,772,
788,789,790,791
186,333,334,335,336,
352,353,354,355,
371,372,373,374,
390,391,392,393,
466,467,468,469,
485,486,487,488,
504,505,506,507,
523,524,525,526,
599,600,601,602,
618,619,620,621,
637,638,639,640,
656,657,658,659,
732,733,734,735,
751,752,753,754,
770,771,772,773,
789,790,791,792
187,334,335,336,337,
353,354,355,356,
372,373,374,375,
391,392,393,394,
467,468,469,470,
486,487,488,489,
505,506,507,508,
524,525,526,527,
600,601,602,603,
619,620,621,622,
638,639,640,641,
657,658,659,660,
733,734,735,736,
752,753,754,755,
771,772,773,774,
790,791,792,793
188,335,336,337,338,
354,355,356,357,
373,374,375,376,
392,393,394,395,
468,469,470,471,
487,488,489,490,
506,507,508,509,
525,526,527,528,
601,602,603,604,
620,621,622,623,
639,640,641,642,
658,659,660,661,
734,735,736,737,
753,754,755,756,
772,773,774,775,
791,792,793,794
189,336,337,338,339,
355,356,357,358,
374,375,376,377,
393,394,395,396,
469,470,471,472,
488,489,490,491,
507,508,509,510,
526,527,528,529,
602,603,604,605,
621,622,623,624,
640,641,642,643,
659,660,661,662,
735,736,737,738,
754,755,756,757,
773,774,775,776,
792,793,794,795
190,337,338,339,340,
356,357,358,359,
375,376,377,378,
394,395,396,397,
470,471,472,473,
489,490,491,492,
508,509,510,511,
527,528,529,530,
603,604,605,606,
622,623,624,625,
641,642,643,644,
660,661,662,663,
736,737,738,739,
755,756,757,758,
774,775,776,777,
793,794,795,796
191,338,339,340,341,
357,358,359,360,
376,377,378,379,
395,396,397,398,
471,472,473,474,
490,491,492,493,
509,510,511,512,
528,529,530,531,
604,605,606,607,
623,624,625,626,
642,643,644,645,
661,662,663,664,
737,738,739,740,
756,757,758,759,
775,776,777,778,
794,795,796,797
192,339,340,341,342,
358,359,360,361,
377,378,379,380,
396,397,398,399,
472,473,474,475,
491,492,493,494,
510,511,512,513,
529,530,531,532,
605,606,607,608,
624,625,626,627,
643,644,645,646,
662,663,664,665,
738,739,740,741,
757,758,759,760,
776,777,778,779,
795,796,797,798
193,400,401,402,403,
419,420,421,422,
438,439,440,441,
457,458,459,460,
533,534,535,536,
552,553,554,555,
571,572,573,574,
590,591,592,593,
666,667,668,669,
685,686,687,688,
704,705,706,707,
723,724,725,726,
799,800,801,802,
818,819,820,821,
837,838,839,840,
856,857,858,859
194,401,402,403,404,
420,421,422,423,
439,440,441,442,
458,459,460,461,
534,535,536,537,
553,554,555,556,
572,573,574,575,
591,592,593,594,
667,668,669,670,
686,687,688,689,
705,706,707,708,
724,725,726,727,
800,801,802,803,
819,820,821,822,
838,839,840,841,
857,858,859,860
195,402,403,404,405,
421,422,423,424,
440,441,442,443,
459,460,461,462,
535,536,537,538,
554,555,556,557,
573,574,575,576,
592,593,594,595,
668,669,670,671,
687,688,689,690,
706,707,708,709,
725,726,727,728,
801,802,803,804,
820,821,822,823,
839,840,841,842,
858,859,860,861
196,403,404,405,406,
422,423,424,425,
441,442,443,444,
460,461,462,463,
536,537,538,539,
555,556,557,558,
574,575,576,577,
593,594,595,596,
669,670,671,672,
688,689,690,691,
707,708,709,710,
726,727,728,729,
802,803,804,805,
821,822,823,824,
840,841,842,843,
859,860,861,862
197,404,405,406,407,
423,424,425,426,
442,443,444,445,
461,462,463,464,
537,538,539,540,
556,557,558,559,
575,576,577,578,
594,595,596,597,
670,671,672,673,
689,690,691,692,
708,709,710,711,
727,728,729,730,
803,804,805,806,
822,823,824,825,
841,842,843,844,
860,861,862,863
198,405,406,407,408,
424,425,426,427,
443,444,445,446,
462,463,464,465,
538,539,540,541,
557,558,559,560,
576,577,578,579,
595,596,597,598,
671,672,673,674,
690,691,692,693,
709,710,711,712,
728,729,730,731,
804,805,806,807,
823,824,825,826,
842,843,844,845,
861,862,863,864
199,406,407,408,409,
425,426,427,428,
444,445,446,447,
463,464,465,466,
539,540,541,542,
558,559,560,561,
577,578,579,580,
596,597,598,599,
672,673,674,675,
691,692,693,694,
710,711,712,713,
729,730,731,732,
805,806,807,808,
824,825,826,827,
843,844,845,846,
862,863,864,865
200,407,408,409,410,
426,427,428,429,
445,446,447,448,
464,465,466,467,
540,541,542,543,
559,560,561,562,
578,579,580,581,
597,598,599,600,
673,674,675,676,
692,693,694,695,
711,712,713,714,
730,731,732,733,
806,807,808,809,
825,826,827,828,
844,845,846,847,
863,864,865,866
201,408,409,410,411,
427,428,429,430,
446,447,448,449,
465,466,467,468,
541,542,543,544,
560,561,562,563,
579,580,581,582,
598,599,600,601,
674,675,676,677,
693,694,695,696,
712,713,714,715,
731,732,733,734,
807,808,809,810,
826,827,828,829,
845,846,847,848,
864,865,866,867
202,409,410,411,412,
428,429,430,431,
447,448,449,450,
466,467,468,469,
542,543,544,545,
561,562,563,564,
580,581,582,583,
599,600,601,602,
675,676,677,678,
694,695,696,697,
713,714,715,716,
732,733,734,735,
808,809,810,811,
827,828,829,830,
846,847,848,849,
865,866,867,868
203,410,411,412,413,
429,430,431,432,
448,449,450,451,
467,468,469,470,
543,544,545,546,
562,563,564,565,
581,582,583,584,
600,601,602,603,
676,677,678,679,
695,696,697,698,
714,715,716,717,
733,734,735,736,
809,810,811,812,
828,829,830,831,
847,848,849,850,
866,867,868,869
204,411,412,413,414,
430,431,432,433,
449,450,451,452,
468,469,470,471,
544,545,546,547,
563,564,565,566,
582,583,584,585,
601,602,603,604,
677,678,679,680,
696,697,698,699,
715,716,717,718,
734,735,736,737,
810,811,812,813,
829,830,831,832,
848,849,850,851,
867,868,869,870
205,412,413,414,415,
431,432,433,434,
450,451,452,453,
469,470,471,472,
545,546,547,548,
564,565,566,567,
583,584,585,586,
602,603,604,605,
678,679,680,681,
697,698,699,700,
716,717,718,719,
735,736,737,738,
811,812,813,814,
830,831,832,833,
849,850,851,852,
868,869,870,871
206,413,414,415,416,
432,433,434,435,
451,452,453,454,
470,471,472,473,
546,547,548,549,
565,566,567,568,
584,585,586,587,
603,604,605,606,
679,680,681,682,
698,699,700,701,
717,718,719,720,
736,737,738,739,
812,813,814,815,
831,832,833,834,
850,851,852,853,
869,870,871,872
207,414,415,416,417,
433,434,435,436,
452,453,454,455,
471,472,473,474,
547,548,549,550,
566,567,568,569,
585,586,587,588,
604,605,606,607,
680,681,682,683,
699,700,701,702,
718,719,720,721,
737,738,739,740,
813,814,815,816,
832,833,834,835,
851,852,853,854,
870,871,872,873
208,415,416,417,418,
434,435,436,437,
453,454,455,456,
472,473,474,475,
548,549,550,551,
567,568,569,570,
586,587,588,589,
605,606,607,608,
681,682,683,684,
700,701,702,703,
719,720,721,722,
738,739,740,741,
814,815,816,817,
833,834,835,836,
852,853,854,855,
871,872,873,874
209,419,420,421,422,
438,439,440,441,
457,458,459,460,
476,477,478,479,
552,553,554,555,
571,572,573,574,
590,591,592,593,
609,610,611,612,
685,686,687,688,
704,705,706,707,
723,724,725,726,
742,743,744,745,
818,819,820,821,
837,838,839,840,
856,857,858,859,
875,876,877,878
210,420,421,422,423,
439,440,441,442,
458,459,460,461,
477,478,479,480,
553,554,555,556,
572,573,574,575,
591,592,593,594,
610,611,612,613,
686,687,688,689,
705,706,707,708,
724,725,726,727,
743,744,745,746,
819,820,821,822,
838,839,840,841,
857,858,859,860,
876,877,878,879
211,421,422,423,424,
440,441,442,443,
459,460,461,462,
478,479,480,481,
554,555,556,557,
573,574,575,576,
592,593,594,595,
611,612,613,614,
687,688,689,690,
706,707,708,709,
725,726,727,728,
744,745,746,747,
820,821,822,823,
839,840,841,842,
858,859,860,861,
877,878,879,880
212,422,423,424,425,
441,442,443,444,
460,461,462,463,
479,480,481,482,
555,556,557,558,
574,575,576,577,
593,594,595,596,
612,613,614,615,
688,689,690,691,
707,708,709,710,
726,727,728,729,
745,746,747,748,
821,822,823,824,
840,841,842,843,
859,860,861,862,
878,879,880,881
213,423,424,425,426,
442,443,444,445,
461,462,463,464,
480,481,482,483,
556,557,558,559,
575,576,577,578,
594,595,596,597,
613,614,615,616,
689,690,691,692,
708,709,710,711,
727,728,729,730,
746,747,748,749,
822,823,824,825,
841,842,843,844,
860,861,862,863,
879,880,881,882
214,424,425,426,427,
443,444,445,446,
462,463,464,465,
481,482,483,484,
557,558,559,560,
576,577,578,579,
595,596,597,598,
614,615,616,617,
690,691,692,693,
709,710,711,712,
728,729,730,731,
747,748,749,750,
823,824,825,826,
842,843,844,845,
861,862,863,864,
880,881,882,883
215,425,426,427,428,
444,445,446,447,
463,464,465,466,
482,483,484,485,
558,559,560,561,
577,578,579,580,
596,597,598,599,
615,616,617,618,
691,692,693,694,
710,711,712,713,
729,730,731,732,
748,749,750,751,
824,825,826,827,
843,844,845,846,
862,863,864,865,
881,882,883,884
216,426,427,428,429,
445,446,447,448,
464,465,466,467,
483,484,485,486,
559,560,561,562,
578,579,580,581,
597,598,599,600,
616,617,618,619,
692,693,694,695,
711,712,713,714,
730,731,732,733,
749,750,751,752,
825,826,827,828,
844,845,846,847,
863,864,865,866,
882,883,884,885
217,427,428,429,430,
446,447,448,449,
465,466,467,468,
484,485,486,487,
560,561,562,563,
579,580,581,582,
598,599,600,601,
617,618,619,620,
693,694,695,696,
712,713,714,715,
731,732,733,734,
750,751,752,753,
826,827,828,829,
845,846,847,848,
864,865,866,867,
883,884,885,886
218,428,429,430,431,
447,448,449,450,
466,467,468,469,
485,486,487,488,
561,562,563,564,
580,581,582,583,
599,600,601,602,
618,619,620,621,
694,695,696,697,
713,714,715,716,
732,733,734,735,
751,752,753,754,
827,828,829,830,
846,847,848,849,
865,866,867,868,
884,885,886,887
219,429,430,431,432,
448,449,450,451,
467,468,469,470,
486,487,488,489,
562,563,564,565,
581,582,583,584,
600,601,602,603,
619,620,621,622,
695,696,697,698,
714,715,716,717,
733,734,735,736,
752,753,754,755,
828,829,830,831,
847,848,849,850,
866,867,868,869,
885,886,887,888
220,430,431,432,433,
449,450,451,452,
468,469,470,471,
487,488,489,490,
563,564,565,566,
582,583,584,585,
601,602,603,604,
620,621,622,623,
696,697,698,699,
715,716,717,718,
734,735,736,737,
753,754,755,756,
829,830,831,832,
848,849,850,851,
867,868,869,870,
886,887,888,889
221,431,432,433,434,
450,451,452,453,
469,470,471,472,
488,489,490,491,
564,565,566,567,
583,584,585,586,
602,603,604,605,
621,622,623,624,
697,698,699,700,
716,717,718,719,
735,736,737,738,
754,755,756,757,
830,831,832,833,
849,850,851,852,
868,869,870,871,
887,888,889,890
222,432,433,434,435,
451,452,453,454,
470,471,472,473,
489,490,491,492,
565,566,567,568,
584,585,586,587,
603,604,605,606,
622,623,624,625,
698,699,700,701,
717,718,719,720,
736,737,738,739,
755,756,757,758,
831,832,833,834,
850,851,852,853,
869,870,871,872,
888,889,890,891
223,433,434,435,436,
452,453,454,455,
471,472,473,474,
490,491,492,493,
566,567,568,569,
585,586,587,588,
604,605,606,607,
623,624,625,626,
699,700,701,702,
718,719,720,721,
737,738,739,740,
756,757,758,759,
832,833,834,835,
851,852,853,854,
870,871,872,873,
889,890,891,892
224,434,435,436,437,
453,454,455,456,
472,473,474,475,
491,492,493,494,
567,568,569,570,
586,587,588,589,
605,606,607,608,
624,625,626,627,
700,701,702,703,
719,720,721,722,
738,739,740,741,
757,758,759,760,
833,834,835,836,
852,853,854,855,
871,872,873,874,
890,891,892,893
225,438,439,440,441,
457,458,459,460,
476,477,478,479,
495,496,497,498,
571,572,573,574,
590,591,592,593,
609,610,611,612,
628,629,630,631,
704,705,706,707,
723,724,725,726,
742,743,744,745,
761,762,763,764,
837,838,839,840,
856,857,858,859,
875,876,877,878,
894,895,896,897
226,439,440,441,442,
458,459,460,461,
477,478,479,480,
496,497,498,499,
572,573,574,575,
591,592,593,594,
610,611,612,613,
629,630,631,632,
705,706,707,708,
724,725,726,727,
743,744,745,746,
762,763,764,765,
838,839,840,841,
857,858,859,860,
876,877,878,879,
895,896,897,898
227,440,441,442,443,
459,460,461,462,
478,479,480,481,
497,498,499,500,
573,574,575,576,
592,593,594,595,
611,612,613,614,
630,631,632,633,
706,707,708,709,
725,726,727,728,
744,745,746,747,
763,764,765,766,
839,840,841,842,
858,859,860,861,
877,878,879,880,
896,897,898,899
228,441,442,443,444,
460,461,462,463,
479,480,481,482,
498,499,500,501,
574,575,576,577,
593,594,595,596,
612,613,614,615,
631,632,633,634,
707,708,709,710,
726,727,728,729,
745,746,747,748,
764,765,766,767,
840,841,842,843,
859,860,861,862,
878,879,880,881,
897,898,899,900
229,442,443,444,445,
461,462,463,464,
480,481,482,483,
499,500,501,502,
575,576,577,578,
594,595,596,597,
613,614,615,616,
632,633,634,635,
708,709,710,711,
727,728,729,730,
746,747,748,749,
765,766,767,768,
841,842,843,844,
860,861,862,863,
879,880,881,882,
898,899,900,901
230,443,444,445,446,
462,463,464,465,
481,482,483,484,
500,501,502,503,
576,577,578,579,
595,596,597,598,
614,615,616,617,
633,634,635,636,
709,710,711,712,
728,729,730,731,
747,748,749,750,
766,767,768,769,
842,843,844,845,
861,862,863,864,
880,881,882,883,
899,900,901,902
231,444,445,446,447,
463,464,465,466,
482,483,484,485,
501,502,503,504,
577,578,579,580,
596,597,598,599,
615,616,617,618,
634,635,636,637,
710,711,712,713,
729,730,731,732,
748,749,750,751,
767,768,769,770,
843,844,845,846,
862,863,864,865,
881,882,883,884,
900,901,902,903
232,445,446,447,448,
464,465,466,467,
483,484,485,486,
502,503,504,505,
578,579,580,581,
597,598,599,600,
616,617,618,619,
635,636,637,638,
711,712,713,714,
730,731,732,733,
749,750,751,752,
768,769,770,771,
844,845,846,847,
863,864,865,866,
882,883,884,885,
901,902,903,904
233,446,447,448,449,
465,466,467,468,
484,485,486,487,
503,504,505,506,
579,580,581,582,
598,599,600,601,
617,618,619,620,
636,637,638,639,
712,713,714,715,
731,732,733,734,
750,751,752,753,
769,770,771,772,
845,846,847,848,
864,865,866,867,
883,884,885,886,
902,903,904,905
234,447,448,449,450,
466,467,468,469,
485,486,487,488,
504,505,506,507,
580,581,582,583,
599,600,601,602,
618,619,620,621,
637,638,639,640,
713,714,715,716,
732,733,734,735,
751,752,753,754,
770,771,772,773,
846,847,848,849,
865,866,867,868,
884,885,886,887,
903,904,905,906
235,448,449,450,451,
467,468,469,470,
486,487,488,489,
505,506,507,508,
581,582,583,584,
600,601,602,603,
619,620,621,622,
638,639,640,641,
714,715,716,717,
733,734,735,736,
752,753,754,755,
771,772,773,774,
847,848,849,850,
866,867,868,869,
885,886,887,888,
904,905,906,907
236,449,450,451,452,
468,469,470,471,
487,488,489,490,
506,507,508,509,
582,583,584,585,
601,602,603,604,
620,621,622,623,
639,640,641,642,
715,716,717,718,
734,735,736,737,
753,754,755,756,
772,773,774,775,
848,849,850,851,
867,868,869,870,
886,887,888,889,
905,906,907,908
237,450,451,452,453,
469,470,471,472,
488,489,490,491,
507,508,509,510,
583,584,585,586,
602,603,604,605,
621,622,623,624,
640,641,642,643,
716,717,718,719,
735,736,737,738,
754,755,756,757,
773,774,775,776,
849,850,851,852,
868,869,870,871,
887,888,889,890,
906,907,908,909
238,451,452,453,454,
470,471,472,473,
489,490,491,492,
508,509,510,511,
584,585,586,587,
603,604,605,606,
622,623,624,625,
641,642,643,644,
717,718,719,720,
736,737,738,739,
755,756,757,758,
774,775,776,777,
850,851,852,853,
869,870,871,872,
888,889,890,891,
907,908,909,910
239,452,453,454,455,
471,472,473,474,
490,491,492,493,
509,510,511,512,
585,586,587,588,
604,605,606,607,
623,624,625,626,
642,643,644,645,
718,719,720,721,
737,738,739,740,
756,757,758,759,
775,776,777,778,
851,852,853,854,
870,871,872,873,
889,890,891,892,
908,909,910,911
240,453,454,455,456,
472,473,474,475,
491,492,493,494,
510,511,512,513,
586,587,588,589,
605,606,607,608,
624,625,626,627,
643,644,645,646,
719,720,721,722,
738,739,740,741,
757,758,759,760,
776,777,778,779,
852,853,854,855,
871,872,873,874,
890,891,892,893,
909,910,911,912
241,457,458,459,460,
476,477,478,479,
495,496,497,498,
514,515,516,517,
590,591,592,593,
609,610,611,612,
628,629,630,631,
647,648,649,650,
723,724,725,726,
742,743,744,745,
761,762,763,764,
780,781,782,783,
856,857,858,859,
875,876,877,878,
894,895,896,897,
913,914,915,916
242,458,459,460,461,
477,478,479,480,
496,497,498,499,
515,516,517,518,
591,592,593,594,
610,611,612,613,
629,630,631,632,
648,649,650,651,
724,725,726,727,
743,744,745,746,
762,763,764,765,
781,782,783,784,
857,858,859,860,
876,877,878,879,
895,896,897,898,
914,915,916,917
243,459,460,461,462,
478,479,480,481,
497,498,499,500,
516,517,518,519,
592,593,594,595,
611,612,613,614,
630,631,632,633,
649,650,651,652,
725,726,727,728,
744,745,746,747,
763,764,765,766,
782,783,784,785,
858,859,860,861,
877,878,879,880,
896,897,898,899,
915,916,917,918
244,460,461,462,463,
479,480,481,482,
498,499,500,501,
517,518,519,520,
593,594,595,596,
612,613,614,615,
631,632,633,634,
650,651,652,653,
726,727,728,729,
745,746,747,748,
764,765,766,767,
783,784,785,786,
859,860,861,862,
878,879,880,881,
897,898,899,900,
916,917,918,919
245,461,462,463,464,
480,481,482,483,
499,500,501,502,
518,519,520,521,
594,595,596,597,
613,614,615,616,
632,633,634,635,
651,652,653,654,
727,728,729,730,
746,747,748,749,
765,766,767,768,
784,785,786,787,
860,861,862,863,
879,880,881,882,
898,899,900,901,
917,918,919,920
246,462,463,464,465,
481,482,483,484,
500,501,502,503,
519,520,521,522,
595,596,597,598,
614,615,616,617,
633,634,635,636,
652,653,654,655,
728,729,730,731,
747,748,749,750,
766,767,768,769,
785,786,787,788,
861,862,863,864,
880,881,882,883,
899,900,901,902,
918,919,920,921
247,463,464,465,466,
482,483,484,485,
501,502,503,504,
520,521,522,523,
596,597,598,599,
615,616,617,618,
634,635,636,637,
653,654,655,656,
729,730,731,732,
748,749,750,751,
767,768,769,770,
786,787,788,789,
862,863,864,865,
881,882,883,884,
900,901,902,903,
919,920,921,922
248,464,465,466,467,
483,484,485,486,
502,503,504,505,
521,522,523,524,
597,598,599,600,
616,617,618,619,
635,636,637,638,
654,655,656,657,
730,731,732,733,
749,750,751,752,
768,769,770,771,
787,788,789,790,
863,864,865,866,
882,883,884,885,
901,902,903,904,
920,921,922,923
249,465,466,467,468,
484,485,486,487,
503,504,505,506,
522,523,524,525,
598,599,600,601,
617,618,619,620,
636,637,638,639,
655,656,657,658,
731,732,733,734,
750,751,752,753,
769,770,771,772,
788,789,790,791,
864,865,866,867,
883,884,885,886,
902,903,904,905,
921,922,923,924
250,466,467,468,469,
485,486,487,488,
504,505,506,507,
523,524,525,526,
599,600,601,602,
618,619,620,621,
637,638,639,640,
656,657,658,659,
732,733,734,735,
751,752,753,754,
770,771,772,773,
789,790,791,792,
865,866,867,868,
884,885,886,887,
903,904,905,906,
922,923,924,925
251,467,468,469,470,
486,487,488,489,
505,506,507,508,
524,525,526,527,
600,601,602,603,
619,620,621,622,
638,639,640,641,
657,658,659,660,
733,734,735,736,
752,753,754,755,
771,772,773,774,
790,791,792,793,
866,867,868,869,
885,886,887,888,
904,905,906,907,
923,924,925,926
252,468,469,470,471,
487,488,489,490,
506,507,508,509,
525,526,527,528,
601,602,603,604,
620,621,622,623,
639,640,641,642,
658,659,660,661,
734,735,736,737,
753,754,755,756,
772,773,774,775,
791,792,793,794,
867,868,869,870,
886,887,888,889,
905,906,907,908,
924,925,926,927
253,469,470,471,472,
488,489,490,491,
507,508,509,510,
526,527,528,529,
602,603,604,605,
621,622,623,624,
640,641,642,643,
659,660,661,662,
735,736,737,738,
754,755,756,757,
773,774,775,776,
792,793,794,795,
868,869,870,871,
887,888,889,890,
906,907,908,909,
925,926,927,928
254,470,471,472,473,
489,490,491,492,
508,509,510,511,
527,528,529,530,
603,604,605,606,
622,623,624,625,
641,642,643,644,
660,661,662,663,
736,737,738,739,
755,756,757,758,
774,775,776,777,
793,794,795,796,
869,870,871,872,
888,889,890,891,
907,908,909,910,
926,927,928,929
255,471,472,473,474,
490,491,492,493,
509,510,511,512,
528,529,530,531,
604,605,606,607,
623,624,625,626,
642,643,644,645,
661,662,663,664,
737,738,739,740,
756,757,758,759,
775,776,777,778,
794,795,796,797,
870,871,872,873,
889,890,891,892,
908,909,910,911,
927,928,929,930
256,472,473,474,475,
491,492,493,494,
510,511,512,513,
529,530,531,532,
605,606,607,608,
624,625,626,627,
643,644,645,646,
662,663,664,665,
738,739,740,741,
757,758,759,760,
776,777,778,779,
795,796,797,798,
871,872,873,874,
890,891,892,893,
909,910,911,912,
928,929,930,931
**
*UEL PROPERTY,ELSET=ELSET1
4, 4, 4, 16, 4, 4, 931, 3,
3, 3, 23, 11, 11, 4, 4, 4,
1, 0, 0, -100, 200000, 0.3, 0.5
**
** --- Max number of nodes or elements in line is 10!!!!!
*NSET, NSET=Face_X_0
1, 20, 39, 58, 77, 96, 115, 134, 153, 172,
191, 210, 229, 248, 267, 286, 305, 324, 343, 362,
381, 400, 419, 438, 457, 476, 495, 514, 533, 552,
571, 590, 609, 628, 647, 666, 685, 704, 723, 742,
761, 780, 799, 818, 837, 856, 875, 894, 913,
**
*Step, name=Step-1, nlgeom=NO, inc=1
*STATIC
1., 1., 1., 1.
*BOUNDARY, TYPE=DISPLACEMENT
Face_X_0, 1, 3, 0.
*END STEP