*HEADING
MATLAB generated Abaqus Input File for 3D igUEL subroutine 

**
*NODE,NSET=ALLNODES
1, 0, 0, 0
2, 0.1193071407174312, 0, 0
3, 0.3619376715125143, -0.01079543717652073, 0
4, 0.7307527896466959, -0.06126357634392905, 0
5, 1.103926127569564, -0.1488101199272556, 0
6, 1.476067167587598, -0.2752316545786146, 0
7, 1.841252930425059, -0.4412908374269218, 0
8, 2.193278844153675, -0.6465523868747717, 0
9, 2.525964443884147, -0.8892941784831178, 0
10, 2.833486660306297, -1.166513339693703, 0
11, 3.110705821516882, -1.474035556115853, 0
12, 3.353447613125228, -1.806721155846325, 0
13, 3.558709162573078, -2.158747069574942, 0
14, 3.724768345421385, -2.523932832412402, 0
15, 3.851189880072744, -2.896073872430437, 0
16, 3.938736423656071, -3.269247210353305, 0
17, 3.989204562823479, -3.638062328487486, 0
18, 4, -3.880692859282569, 0
19, 4, -4, 0
20, 0, 0.1666666666666667, 0
21, 0.1242782715806575, 0.1666666666666667, 0
22, 0.3770184078255356, 0.1554214196077909, 0
23, 0.7612008225486415, 0.1028504413084073, 0
24, 1.149923049551629, 0.01165612507577541, 0
25, 1.537569966237082, -0.1200329735193902, 0
26, 1.917971802526103, -0.2930112889863769, 0
27, 2.284665462660079, -0.5068254029945539, 0
28, 2.63121296237932, -0.7596814359199145, 0
29, 2.951548604485726, -1.048451395514274, 0
30, 3.240318564080085, -1.36878703762068, 0
31, 3.493174597005445, -1.715334537339921, 0
32, 3.706988711013623, -2.082028197473897, 0
33, 3.87996702648061, -2.462430033762919, 0
34, 4.011656125075776, -2.850076950448371, 0
35, 4.102850441308408, -3.238799177451359, 0
36, 4.155421419607792, -3.622981592174464, 0
37, 4.166666666666667, -3.875721728419343, 0
38, 4.166666666666667, -4, 0
39, 0, 0.5000000000000001, 0
40, 0.1342205333071101, 0.5000000000000001, 0
41, 0.4071798804515787, 0.4878551331764143, 0
42, 0.8220968883525334, 0.43107847661308, 0
43, 1.24191689351576, 0.3325886150818375, 0
44, 1.660575563536049, 0.1903643885990585, 0
45, 2.071409546728191, 0.003547807894712935, 0
46, 2.467438699672885, -0.2273714352341183, 0
47, 2.841709999369666, -0.5004559507935076, 0
48, 3.187672492844584, -0.8123275071554154, 0
49, 3.499544049206492, -1.158290000630334, 0
50, 3.772628564765881, -1.532561300327115, 0
51, 4.003547807894713, -1.928590453271809, 0
52, 4.190364388599058, -2.339424436463952, 0
53, 4.332588615081837, -2.758083106484241, 0
54, 4.43107847661308, -3.177903111647467, 0
55, 4.487855133176414, -3.592820119548422, 0
56, 4.5, -3.86577946669289, 0
57, 4.5, -4, 0
58, 0, 1, 0
59, 0.1491339258967889, 1, 0
60, 0.4524220893906428, 0.9865057035293491, 0
61, 0.9134409870583701, 0.9234205295700887, 0
62, 1.379907659461955, 0.8139873500909305, 0
63, 1.845083959484498, 0.6559604317767317, 0
64, 2.301566163031323, 0.4483864532163477, 0
65, 2.741598555192094, 0.1918095164065354, 0
66, 3.157455554855184, -0.1116177231038972, 0
67, 3.541858325382872, -0.458141674617128, 0
68, 3.888382276896103, -0.8425444451448159, 0
69, 4.191809516406535, -1.258401444807906, 0
70, 4.448386453216347, -1.698433836968677, 0
71, 4.655960431776732, -2.154916040515502, 0
72, 4.81398735009093, -2.620092340538045, 0
73, 4.923420529570088, -3.08655901294163, 0
74, 4.986505703529349, -3.547577910609357, 0
75, 5, -3.850866074103211, 0
76, 5, -4, 0
77, 0, 1.5, 0
78, 0.1640473184864679, 1.5, 0
79, 0.4976642983297072, 1.485156273882284, 0
80, 1.004785085764207, 1.415762582527098, 0
81, 1.51789842540815, 1.295386085100024, 0
82, 2.029592355432948, 1.121556474954405, 0
83, 2.531722779334456, 0.8932250985379828, 0
84, 3.015758410711304, 0.610990468047189, 0
85, 3.473201110340703, 0.2772205045857132, 0
86, 3.896044157921159, -0.1039558420788407, 0
87, 4.277220504585713, -0.5267988896592973, 0
88, 4.610990468047188, -0.984241589288696, 0
89, 4.893225098537982, -1.468277220665545, 0
90, 5.121556474954405, -1.970407644567053, 0
91, 5.295386085100024, -2.48210157459185, 0
92, 5.415762582527097, -2.995214914235794, 0
93, 5.485156273882283, -3.502335701670293, 0
94, 5.499999999999999, -3.835952681513532, 0
95, 5.5, -4, 0
96, 0, 1.833333333333333, 0
97, 0.1739895802129205, 1.833333333333333, 0
98, 0.5278257709557501, 1.817589987450907, 0
99, 1.065681151568099, 1.743990617831771, 0
100, 1.609892269372281, 1.616318575106086, 0
101, 2.152597952731914, 1.431953837072854, 0
102, 2.685160523536544, 1.189784195419073, 0
103, 3.19853164772411, 0.8904444358076247, 0
104, 3.683698147331048, 0.53644598971212, 0
105, 4.132168046280017, 0.1321680462800174, 0
106, 4.53644598971212, -0.3163018526689517, 0
107, 4.890444435807624, -0.8014683522758896, 0
108, 5.189784195419072, -1.314839476463456, 0
109, 5.431953837072854, -1.847402047268086, 0
110, 5.616318575106086, -2.39010773062772, 0
111, 5.743990617831771, -2.934318848431902, 0
112, 5.817589987450907, -3.47217422904425, 0
113, 5.833333333333333, -3.826010419787079, 0
114, 5.833333333333333, -4, 0
115, 0, 2, 0
116, 0.1789607110761468, 2, 0
117, 0.5429065072687713, 1.983806844235219, 0
118, 1.096129184470044, 1.908104635484106, 0
119, 1.655889191354346, 1.776784820109117, 0
120, 2.214100751381397, 1.587152518132078, 0
121, 2.761879395637588, 1.338063743859617, 0
122, 3.289918266230513, 1.030171419687842, 0
123, 3.788946665826221, 0.6660587322753231, 0
124, 4.250229990459446, 0.2502299904594461, 0
125, 4.666058732275324, -0.2110533341737793, 0
126, 5.030171419687841, -0.7100817337694871, 0
127, 5.338063743859617, -1.238120604362413, 0
128, 5.587152518132078, -1.785899248618603, 0
129, 5.776784820109117, -2.344110808645655, 0
130, 5.908104635484106, -2.903870815529956, 0
131, 5.983806844235218, -3.457093492731229, 0
132, 5.999999999999999, -3.821039288923853, 0
133, 6, -4, 0
134, 0, 0, 0.1666666666666667
135, 0.1193071407174312, 0, 0.1666666666666667
136, 0.3619376715125143, -0.01079543717652073, 0.1666666666666667
137, 0.7307527896466959, -0.06126357634392905, 0.1666666666666667
138, 1.103926127569564, -0.1488101199272556, 0.1666666666666667
139, 1.476067167587598, -0.2752316545786146, 0.1666666666666667
140, 1.841252930425059, -0.4412908374269218, 0.1666666666666667
141, 2.193278844153675, -0.6465523868747717, 0.1666666666666667
142, 2.525964443884147, -0.8892941784831178, 0.1666666666666667
143, 2.833486660306297, -1.166513339693703, 0.1666666666666667
144, 3.110705821516882, -1.474035556115853, 0.1666666666666667
145, 3.353447613125228, -1.806721155846325, 0.1666666666666667
146, 3.558709162573078, -2.158747069574942, 0.1666666666666667
147, 3.724768345421385, -2.523932832412402, 0.1666666666666667
148, 3.851189880072744, -2.896073872430437, 0.1666666666666667
149, 3.938736423656071, -3.269247210353305, 0.1666666666666667
150, 3.989204562823479, -3.638062328487486, 0.1666666666666667
151, 4, -3.880692859282569, 0.1666666666666667
152, 4, -4, 0.1666666666666667
153, 0, 0.1666666666666667, 0.1666666666666667
154, 0.1242782715806575, 0.1666666666666667, 0.1666666666666667
155, 0.3770184078255356, 0.1554214196077909, 0.1666666666666667
156, 0.7612008225486415, 0.1028504413084073, 0.1666666666666667
157, 1.149923049551629, 0.01165612507577541, 0.1666666666666667
158, 1.537569966237082, -0.1200329735193902, 0.1666666666666667
159, 1.917971802526103, -0.2930112889863769, 0.1666666666666667
160, 2.284665462660079, -0.5068254029945539, 0.1666666666666667
161, 2.63121296237932, -0.7596814359199145, 0.1666666666666667
162, 2.951548604485726, -1.048451395514274, 0.1666666666666667
163, 3.240318564080085, -1.36878703762068, 0.1666666666666667
164, 3.493174597005445, -1.715334537339921, 0.1666666666666667
165, 3.706988711013623, -2.082028197473897, 0.1666666666666667
166, 3.87996702648061, -2.462430033762919, 0.1666666666666667
167, 4.011656125075776, -2.850076950448371, 0.1666666666666667
168, 4.102850441308408, -3.238799177451359, 0.1666666666666667
169, 4.155421419607792, -3.622981592174464, 0.1666666666666667
170, 4.166666666666667, -3.875721728419343, 0.1666666666666667
171, 4.166666666666667, -4, 0.1666666666666667
172, 0, 0.5000000000000001, 0.1666666666666667
173, 0.1342205333071101, 0.5000000000000001, 0.1666666666666667
174, 0.4071798804515787, 0.4878551331764143, 0.1666666666666667
175, 0.8220968883525334, 0.43107847661308, 0.1666666666666667
176, 1.24191689351576, 0.3325886150818375, 0.1666666666666667
177, 1.660575563536049, 0.1903643885990585, 0.1666666666666667
178, 2.071409546728191, 0.003547807894712935, 0.1666666666666667
179, 2.467438699672885, -0.2273714352341183, 0.1666666666666667
180, 2.841709999369666, -0.5004559507935076, 0.1666666666666667
181, 3.187672492844584, -0.8123275071554154, 0.1666666666666667
182, 3.499544049206492, -1.158290000630334, 0.1666666666666667
183, 3.772628564765881, -1.532561300327115, 0.1666666666666667
184, 4.003547807894713, -1.928590453271809, 0.1666666666666667
185, 4.190364388599058, -2.339424436463952, 0.1666666666666667
186, 4.332588615081837, -2.758083106484241, 0.1666666666666667
187, 4.43107847661308, -3.177903111647467, 0.1666666666666667
188, 4.487855133176414, -3.592820119548422, 0.1666666666666667
189, 4.5, -3.86577946669289, 0.1666666666666667
190, 4.5, -4, 0.1666666666666667
191, 0, 1, 0.1666666666666667
192, 0.1491339258967889, 1, 0.1666666666666667
193, 0.4524220893906428, 0.9865057035293491, 0.1666666666666667
194, 0.9134409870583701, 0.9234205295700887, 0.1666666666666667
195, 1.379907659461955, 0.8139873500909305, 0.1666666666666667
196, 1.845083959484498, 0.6559604317767317, 0.1666666666666667
197, 2.301566163031323, 0.4483864532163477, 0.1666666666666667
198, 2.741598555192094, 0.1918095164065354, 0.1666666666666667
199, 3.157455554855184, -0.1116177231038972, 0.1666666666666667
200, 3.541858325382872, -0.458141674617128, 0.1666666666666667
201, 3.888382276896103, -0.8425444451448159, 0.1666666666666667
202, 4.191809516406535, -1.258401444807906, 0.1666666666666667
203, 4.448386453216347, -1.698433836968677, 0.1666666666666667
204, 4.655960431776732, -2.154916040515502, 0.1666666666666667
205, 4.81398735009093, -2.620092340538045, 0.1666666666666667
206, 4.923420529570088, -3.08655901294163, 0.1666666666666667
207, 4.986505703529349, -3.547577910609357, 0.1666666666666667
208, 5, -3.850866074103211, 0.1666666666666667
209, 5, -4, 0.1666666666666667
210, 0, 1.5, 0.1666666666666667
211, 0.1640473184864679, 1.5, 0.1666666666666667
212, 0.4976642983297072, 1.485156273882284, 0.1666666666666667
213, 1.004785085764207, 1.415762582527098, 0.1666666666666667
214, 1.51789842540815, 1.295386085100024, 0.1666666666666667
215, 2.029592355432948, 1.121556474954405, 0.1666666666666667
216, 2.531722779334456, 0.8932250985379828, 0.1666666666666667
217, 3.015758410711304, 0.610990468047189, 0.1666666666666667
218, 3.473201110340703, 0.2772205045857132, 0.1666666666666667
219, 3.896044157921159, -0.1039558420788407, 0.1666666666666667
220, 4.277220504585713, -0.5267988896592973, 0.1666666666666667
221, 4.610990468047188, -0.984241589288696, 0.1666666666666667
222, 4.893225098537982, -1.468277220665545, 0.1666666666666667
223, 5.121556474954405, -1.970407644567053, 0.1666666666666667
224, 5.295386085100024, -2.48210157459185, 0.1666666666666667
225, 5.415762582527097, -2.995214914235794, 0.1666666666666667
226, 5.485156273882283, -3.502335701670293, 0.1666666666666667
227, 5.499999999999999, -3.835952681513532, 0.1666666666666667
228, 5.5, -4, 0.1666666666666667
229, 0, 1.833333333333333, 0.1666666666666667
230, 0.1739895802129205, 1.833333333333333, 0.1666666666666667
231, 0.5278257709557501, 1.817589987450907, 0.1666666666666667
232, 1.065681151568099, 1.743990617831771, 0.1666666666666667
233, 1.609892269372281, 1.616318575106086, 0.1666666666666667
234, 2.152597952731914, 1.431953837072854, 0.1666666666666667
235, 2.685160523536544, 1.189784195419073, 0.1666666666666667
236, 3.19853164772411, 0.8904444358076247, 0.1666666666666667
237, 3.683698147331048, 0.53644598971212, 0.1666666666666667
238, 4.132168046280017, 0.1321680462800174, 0.1666666666666667
239, 4.53644598971212, -0.3163018526689517, 0.1666666666666667
240, 4.890444435807624, -0.8014683522758896, 0.1666666666666667
241, 5.189784195419072, -1.314839476463456, 0.1666666666666667
242, 5.431953837072854, -1.847402047268086, 0.1666666666666667
243, 5.616318575106086, -2.39010773062772, 0.1666666666666667
244, 5.743990617831771, -2.934318848431902, 0.1666666666666667
245, 5.817589987450907, -3.47217422904425, 0.1666666666666667
246, 5.833333333333333, -3.826010419787079, 0.1666666666666667
247, 5.833333333333333, -4, 0.1666666666666667
248, 0, 2, 0.1666666666666667
249, 0.1789607110761468, 2, 0.1666666666666667
250, 0.5429065072687713, 1.983806844235219, 0.1666666666666667
251, 1.096129184470044, 1.908104635484106, 0.1666666666666667
252, 1.655889191354346, 1.776784820109117, 0.1666666666666667
253, 2.214100751381397, 1.587152518132078, 0.1666666666666667
254, 2.761879395637588, 1.338063743859617, 0.1666666666666667
255, 3.289918266230513, 1.030171419687842, 0.1666666666666667
256, 3.788946665826221, 0.6660587322753231, 0.1666666666666667
257, 4.250229990459446, 0.2502299904594461, 0.1666666666666667
258, 4.666058732275324, -0.2110533341737793, 0.1666666666666667
259, 5.030171419687841, -0.7100817337694871, 0.1666666666666667
260, 5.338063743859617, -1.238120604362413, 0.1666666666666667
261, 5.587152518132078, -1.785899248618603, 0.1666666666666667
262, 5.776784820109117, -2.344110808645655, 0.1666666666666667
263, 5.908104635484106, -2.903870815529956, 0.1666666666666667
264, 5.983806844235218, -3.457093492731229, 0.1666666666666667
265, 5.999999999999999, -3.821039288923853, 0.1666666666666667
266, 6, -4, 0.1666666666666667
267, 0, 0, 0.5000000000000001
268, 0.1193071407174312, 0, 0.5000000000000001
269, 0.3619376715125143, -0.01079543717652073, 0.5000000000000001
270, 0.7307527896466959, -0.06126357634392905, 0.5000000000000001
271, 1.103926127569564, -0.1488101199272556, 0.5000000000000001
272, 1.476067167587598, -0.2752316545786146, 0.5000000000000001
273, 1.841252930425059, -0.4412908374269218, 0.5000000000000001
274, 2.193278844153675, -0.6465523868747717, 0.5000000000000001
275, 2.525964443884147, -0.8892941784831178, 0.5000000000000001
276, 2.833486660306297, -1.166513339693703, 0.5000000000000001
277, 3.110705821516882, -1.474035556115853, 0.5000000000000001
278, 3.353447613125228, -1.806721155846325, 0.5000000000000001
279, 3.558709162573078, -2.158747069574942, 0.5000000000000001
280, 3.724768345421385, -2.523932832412402, 0.5000000000000001
281, 3.851189880072744, -2.896073872430437, 0.5000000000000001
282, 3.938736423656071, -3.269247210353305, 0.5000000000000001
283, 3.989204562823479, -3.638062328487486, 0.5000000000000001
284, 4, -3.880692859282569, 0.5000000000000001
285, 4, -4, 0.5000000000000001
286, 0, 0.1666666666666667, 0.5000000000000001
287, 0.1242782715806575, 0.1666666666666667, 0.5000000000000001
288, 0.3770184078255356, 0.1554214196077909, 0.5000000000000001
289, 0.7612008225486415, 0.1028504413084073, 0.5000000000000001
290, 1.149923049551629, 0.01165612507577541, 0.5000000000000001
291, 1.537569966237082, -0.1200329735193902, 0.5000000000000001
292, 1.917971802526103, -0.2930112889863769, 0.5000000000000001
293, 2.284665462660079, -0.5068254029945539, 0.5000000000000001
294, 2.63121296237932, -0.7596814359199145, 0.5000000000000001
295, 2.951548604485726, -1.048451395514274, 0.5000000000000001
296, 3.240318564080085, -1.36878703762068, 0.5000000000000001
297, 3.493174597005445, -1.715334537339921, 0.5000000000000001
298, 3.706988711013623, -2.082028197473897, 0.5000000000000001
299, 3.87996702648061, -2.462430033762919, 0.5000000000000001
300, 4.011656125075776, -2.850076950448371, 0.5000000000000001
301, 4.102850441308408, -3.238799177451359, 0.5000000000000001
302, 4.155421419607792, -3.622981592174464, 0.5000000000000001
303, 4.166666666666667, -3.875721728419343, 0.5000000000000001
304, 4.166666666666667, -4, 0.5000000000000001
305, 0, 0.5000000000000001, 0.5000000000000001
306, 0.1342205333071101, 0.5000000000000001, 0.5000000000000001
307, 0.4071798804515787, 0.4878551331764143, 0.5000000000000001
308, 0.8220968883525334, 0.43107847661308, 0.5000000000000001
309, 1.24191689351576, 0.3325886150818375, 0.5000000000000001
310, 1.660575563536049, 0.1903643885990585, 0.5000000000000001
311, 2.071409546728191, 0.003547807894712935, 0.5000000000000001
312, 2.467438699672885, -0.2273714352341183, 0.5000000000000001
313, 2.841709999369666, -0.5004559507935076, 0.5000000000000001
314, 3.187672492844584, -0.8123275071554154, 0.5000000000000001
315, 3.499544049206492, -1.158290000630334, 0.5000000000000001
316, 3.772628564765881, -1.532561300327115, 0.5000000000000001
317, 4.003547807894713, -1.928590453271809, 0.5000000000000001
318, 4.190364388599058, -2.339424436463952, 0.5000000000000001
319, 4.332588615081837, -2.758083106484241, 0.5000000000000001
320, 4.43107847661308, -3.177903111647467, 0.5000000000000001
321, 4.487855133176414, -3.592820119548422, 0.5000000000000001
322, 4.5, -3.86577946669289, 0.5000000000000001
323, 4.5, -4, 0.5000000000000001
324, 0, 1, 0.5000000000000001
325, 0.1491339258967889, 1, 0.5000000000000001
326, 0.4524220893906428, 0.9865057035293491, 0.5000000000000001
327, 0.9134409870583701, 0.9234205295700887, 0.5000000000000001
328, 1.379907659461955, 0.8139873500909305, 0.5000000000000001
329, 1.845083959484498, 0.6559604317767317, 0.5000000000000001
330, 2.301566163031323, 0.4483864532163477, 0.5000000000000001
331, 2.741598555192094, 0.1918095164065354, 0.5000000000000001
332, 3.157455554855184, -0.1116177231038972, 0.5000000000000001
333, 3.541858325382872, -0.458141674617128, 0.5000000000000001
334, 3.888382276896103, -0.8425444451448159, 0.5000000000000001
335, 4.191809516406535, -1.258401444807906, 0.5000000000000001
336, 4.448386453216347, -1.698433836968677, 0.5000000000000001
337, 4.655960431776732, -2.154916040515502, 0.5000000000000001
338, 4.81398735009093, -2.620092340538045, 0.5000000000000001
339, 4.923420529570088, -3.08655901294163, 0.5000000000000001
340, 4.986505703529349, -3.547577910609357, 0.5000000000000001
341, 5, -3.850866074103211, 0.5000000000000001
342, 5, -4, 0.5000000000000001
343, 0, 1.5, 0.5000000000000001
344, 0.1640473184864679, 1.5, 0.5000000000000001
345, 0.4976642983297072, 1.485156273882284, 0.5000000000000001
346, 1.004785085764207, 1.415762582527098, 0.5000000000000001
347, 1.51789842540815, 1.295386085100024, 0.5000000000000001
348, 2.029592355432948, 1.121556474954405, 0.5000000000000001
349, 2.531722779334456, 0.8932250985379828, 0.5000000000000001
350, 3.015758410711304, 0.610990468047189, 0.5000000000000001
351, 3.473201110340703, 0.2772205045857132, 0.5000000000000001
352, 3.896044157921159, -0.1039558420788407, 0.5000000000000001
353, 4.277220504585713, -0.5267988896592973, 0.5000000000000001
354, 4.610990468047188, -0.984241589288696, 0.5000000000000001
355, 4.893225098537982, -1.468277220665545, 0.5000000000000001
356, 5.121556474954405, -1.970407644567053, 0.5000000000000001
357, 5.295386085100024, -2.48210157459185, 0.5000000000000001
358, 5.415762582527097, -2.995214914235794, 0.5000000000000001
359, 5.485156273882283, -3.502335701670293, 0.5000000000000001
360, 5.499999999999999, -3.835952681513532, 0.5000000000000001
361, 5.5, -4, 0.5000000000000001
362, 0, 1.833333333333333, 0.5000000000000001
363, 0.1739895802129205, 1.833333333333333, 0.5000000000000001
364, 0.5278257709557501, 1.817589987450907, 0.5000000000000001
365, 1.065681151568099, 1.743990617831771, 0.5000000000000001
366, 1.609892269372281, 1.616318575106086, 0.5000000000000001
367, 2.152597952731914, 1.431953837072854, 0.5000000000000001
368, 2.685160523536544, 1.189784195419073, 0.5000000000000001
369, 3.19853164772411, 0.8904444358076247, 0.5000000000000001
370, 3.683698147331048, 0.53644598971212, 0.5000000000000001
371, 4.132168046280017, 0.1321680462800174, 0.5000000000000001
372, 4.53644598971212, -0.3163018526689517, 0.5000000000000001
373, 4.890444435807624, -0.8014683522758896, 0.5000000000000001
374, 5.189784195419072, -1.314839476463456, 0.5000000000000001
375, 5.431953837072854, -1.847402047268086, 0.5000000000000001
376, 5.616318575106086, -2.39010773062772, 0.5000000000000001
377, 5.743990617831771, -2.934318848431902, 0.5000000000000001
378, 5.817589987450907, -3.47217422904425, 0.5000000000000001
379, 5.833333333333333, -3.826010419787079, 0.5000000000000001
380, 5.833333333333333, -4, 0.5000000000000001
381, 0, 2, 0.5000000000000001
382, 0.1789607110761468, 2, 0.5000000000000001
383, 0.5429065072687713, 1.983806844235219, 0.5000000000000001
384, 1.096129184470044, 1.908104635484106, 0.5000000000000001
385, 1.655889191354346, 1.776784820109117, 0.5000000000000001
386, 2.214100751381397, 1.587152518132078, 0.5000000000000001
387, 2.761879395637588, 1.338063743859617, 0.5000000000000001
388, 3.289918266230513, 1.030171419687842, 0.5000000000000001
389, 3.788946665826221, 0.6660587322753231, 0.5000000000000001
390, 4.250229990459446, 0.2502299904594461, 0.5000000000000001
391, 4.666058732275324, -0.2110533341737793, 0.5000000000000001
392, 5.030171419687841, -0.7100817337694871, 0.5000000000000001
393, 5.338063743859617, -1.238120604362413, 0.5000000000000001
394, 5.587152518132078, -1.785899248618603, 0.5000000000000001
395, 5.776784820109117, -2.344110808645655, 0.5000000000000001
396, 5.908104635484106, -2.903870815529956, 0.5000000000000001
397, 5.983806844235218, -3.457093492731229, 0.5000000000000001
398, 5.999999999999999, -3.821039288923853, 0.5000000000000001
399, 6, -4, 0.5000000000000001
400, 0, 0, 1
401, 0.1193071407174312, 0, 1
402, 0.3619376715125143, -0.01079543717652073, 1
403, 0.7307527896466959, -0.06126357634392905, 1
404, 1.103926127569564, -0.1488101199272556, 1
405, 1.476067167587598, -0.2752316545786146, 1
406, 1.841252930425059, -0.4412908374269218, 1
407, 2.193278844153675, -0.6465523868747717, 1
408, 2.525964443884147, -0.8892941784831178, 1
409, 2.833486660306297, -1.166513339693703, 1
410, 3.110705821516882, -1.474035556115853, 1
411, 3.353447613125228, -1.806721155846325, 1
412, 3.558709162573078, -2.158747069574942, 1
413, 3.724768345421385, -2.523932832412402, 1
414, 3.851189880072744, -2.896073872430437, 1
415, 3.938736423656071, -3.269247210353305, 1
416, 3.989204562823479, -3.638062328487486, 1
417, 4, -3.880692859282569, 1
418, 4, -4, 1
419, 0, 0.1666666666666667, 1
420, 0.1242782715806575, 0.1666666666666667, 1
421, 0.3770184078255356, 0.1554214196077909, 1
422, 0.7612008225486415, 0.1028504413084073, 1
423, 1.149923049551629, 0.01165612507577541, 1
424, 1.537569966237082, -0.1200329735193902, 1
425, 1.917971802526103, -0.2930112889863769, 1
426, 2.284665462660079, -0.5068254029945539, 1
427, 2.63121296237932, -0.7596814359199145, 1
428, 2.951548604485726, -1.048451395514274, 1
429, 3.240318564080085, -1.36878703762068, 1
430, 3.493174597005445, -1.715334537339921, 1
431, 3.706988711013623, -2.082028197473897, 1
432, 3.87996702648061, -2.462430033762919, 1
433, 4.011656125075776, -2.850076950448371, 1
434, 4.102850441308408, -3.238799177451359, 1
435, 4.155421419607792, -3.622981592174464, 1
436, 4.166666666666667, -3.875721728419343, 1
437, 4.166666666666667, -4, 1
438, 0, 0.5000000000000001, 1
439, 0.1342205333071101, 0.5000000000000001, 1
440, 0.4071798804515787, 0.4878551331764143, 1
441, 0.8220968883525334, 0.43107847661308, 1
442, 1.24191689351576, 0.3325886150818375, 1
443, 1.660575563536049, 0.1903643885990585, 1
444, 2.071409546728191, 0.003547807894712935, 1
445, 2.467438699672885, -0.2273714352341183, 1
446, 2.841709999369666, -0.5004559507935076, 1
447, 3.187672492844584, -0.8123275071554154, 1
448, 3.499544049206492, -1.158290000630334, 1
449, 3.772628564765881, -1.532561300327115, 1
450, 4.003547807894713, -1.928590453271809, 1
451, 4.190364388599058, -2.339424436463952, 1
452, 4.332588615081837, -2.758083106484241, 1
453, 4.43107847661308, -3.177903111647467, 1
454, 4.487855133176414, -3.592820119548422, 1
455, 4.5, -3.86577946669289, 1
456, 4.5, -4, 1
457, 0, 1, 1
458, 0.1491339258967889, 1, 1
459, 0.4524220893906428, 0.9865057035293491, 1
460, 0.9134409870583701, 0.9234205295700887, 1
461, 1.379907659461955, 0.8139873500909305, 1
462, 1.845083959484498, 0.6559604317767317, 1
463, 2.301566163031323, 0.4483864532163477, 1
464, 2.741598555192094, 0.1918095164065354, 1
465, 3.157455554855184, -0.1116177231038972, 1
466, 3.541858325382872, -0.458141674617128, 1
467, 3.888382276896103, -0.8425444451448159, 1
468, 4.191809516406535, -1.258401444807906, 1
469, 4.448386453216347, -1.698433836968677, 1
470, 4.655960431776732, -2.154916040515502, 1
471, 4.81398735009093, -2.620092340538045, 1
472, 4.923420529570088, -3.08655901294163, 1
473, 4.986505703529349, -3.547577910609357, 1
474, 5, -3.850866074103211, 1
475, 5, -4, 1
476, 0, 1.5, 1
477, 0.1640473184864679, 1.5, 1
478, 0.4976642983297072, 1.485156273882284, 1
479, 1.004785085764207, 1.415762582527098, 1
480, 1.51789842540815, 1.295386085100024, 1
481, 2.029592355432948, 1.121556474954405, 1
482, 2.531722779334456, 0.8932250985379828, 1
483, 3.015758410711304, 0.610990468047189, 1
484, 3.473201110340703, 0.2772205045857132, 1
485, 3.896044157921159, -0.1039558420788407, 1
486, 4.277220504585713, -0.5267988896592973, 1
487, 4.610990468047188, -0.984241589288696, 1
488, 4.893225098537982, -1.468277220665545, 1
489, 5.121556474954405, -1.970407644567053, 1
490, 5.295386085100024, -2.48210157459185, 1
491, 5.415762582527097, -2.995214914235794, 1
492, 5.485156273882283, -3.502335701670293, 1
493, 5.499999999999999, -3.835952681513532, 1
494, 5.5, -4, 1
495, 0, 1.833333333333333, 1
496, 0.1739895802129205, 1.833333333333333, 1
497, 0.5278257709557501, 1.817589987450907, 1
498, 1.065681151568099, 1.743990617831771, 1
499, 1.609892269372281, 1.616318575106086, 1
500, 2.152597952731914, 1.431953837072854, 1
501, 2.685160523536544, 1.189784195419073, 1
502, 3.19853164772411, 0.8904444358076247, 1
503, 3.683698147331048, 0.53644598971212, 1
504, 4.132168046280017, 0.1321680462800174, 1
505, 4.53644598971212, -0.3163018526689517, 1
506, 4.890444435807624, -0.8014683522758896, 1
507, 5.189784195419072, -1.314839476463456, 1
508, 5.431953837072854, -1.847402047268086, 1
509, 5.616318575106086, -2.39010773062772, 1
510, 5.743990617831771, -2.934318848431902, 1
511, 5.817589987450907, -3.47217422904425, 1
512, 5.833333333333333, -3.826010419787079, 1
513, 5.833333333333333, -4, 1
514, 0, 2, 1
515, 0.1789607110761468, 2, 1
516, 0.5429065072687713, 1.983806844235219, 1
517, 1.096129184470044, 1.908104635484106, 1
518, 1.655889191354346, 1.776784820109117, 1
519, 2.214100751381397, 1.587152518132078, 1
520, 2.761879395637588, 1.338063743859617, 1
521, 3.289918266230513, 1.030171419687842, 1
522, 3.788946665826221, 0.6660587322753231, 1
523, 4.250229990459446, 0.2502299904594461, 1
524, 4.666058732275324, -0.2110533341737793, 1
525, 5.030171419687841, -0.7100817337694871, 1
526, 5.338063743859617, -1.238120604362413, 1
527, 5.587152518132078, -1.785899248618603, 1
528, 5.776784820109117, -2.344110808645655, 1
529, 5.908104635484106, -2.903870815529956, 1
530, 5.983806844235218, -3.457093492731229, 1
531, 5.999999999999999, -3.821039288923853, 1
532, 6, -4, 1
533, 0, 0, 1.5
534, 0.1193071407174312, 0, 1.5
535, 0.3619376715125143, -0.01079543717652073, 1.5
536, 0.7307527896466959, -0.06126357634392905, 1.5
537, 1.103926127569564, -0.1488101199272556, 1.5
538, 1.476067167587598, -0.2752316545786146, 1.5
539, 1.841252930425059, -0.4412908374269218, 1.5
540, 2.193278844153675, -0.6465523868747717, 1.5
541, 2.525964443884147, -0.8892941784831178, 1.5
542, 2.833486660306297, -1.166513339693703, 1.5
543, 3.110705821516882, -1.474035556115853, 1.5
544, 3.353447613125228, -1.806721155846325, 1.5
545, 3.558709162573078, -2.158747069574942, 1.5
546, 3.724768345421385, -2.523932832412402, 1.5
547, 3.851189880072744, -2.896073872430437, 1.5
548, 3.938736423656071, -3.269247210353305, 1.5
549, 3.989204562823479, -3.638062328487486, 1.5
550, 4, -3.880692859282569, 1.5
551, 4, -4, 1.5
552, 0, 0.1666666666666667, 1.5
553, 0.1242782715806575, 0.1666666666666667, 1.5
554, 0.3770184078255356, 0.1554214196077909, 1.5
555, 0.7612008225486415, 0.1028504413084073, 1.5
556, 1.149923049551629, 0.01165612507577541, 1.5
557, 1.537569966237082, -0.1200329735193902, 1.5
558, 1.917971802526103, -0.2930112889863769, 1.5
559, 2.284665462660079, -0.5068254029945539, 1.5
560, 2.63121296237932, -0.7596814359199145, 1.5
561, 2.951548604485726, -1.048451395514274, 1.5
562, 3.240318564080085, -1.36878703762068, 1.5
563, 3.493174597005445, -1.715334537339921, 1.5
564, 3.706988711013623, -2.082028197473897, 1.5
565, 3.87996702648061, -2.462430033762919, 1.5
566, 4.011656125075776, -2.850076950448371, 1.5
567, 4.102850441308408, -3.238799177451359, 1.5
568, 4.155421419607792, -3.622981592174464, 1.5
569, 4.166666666666667, -3.875721728419343, 1.5
570, 4.166666666666667, -4, 1.5
571, 0, 0.5000000000000001, 1.5
572, 0.1342205333071101, 0.5000000000000001, 1.5
573, 0.4071798804515787, 0.4878551331764143, 1.5
574, 0.8220968883525334, 0.43107847661308, 1.5
575, 1.24191689351576, 0.3325886150818375, 1.5
576, 1.660575563536049, 0.1903643885990585, 1.5
577, 2.071409546728191, 0.003547807894712935, 1.5
578, 2.467438699672885, -0.2273714352341183, 1.5
579, 2.841709999369666, -0.5004559507935076, 1.5
580, 3.187672492844584, -0.8123275071554154, 1.5
581, 3.499544049206492, -1.158290000630334, 1.5
582, 3.772628564765881, -1.532561300327115, 1.5
583, 4.003547807894713, -1.928590453271809, 1.5
584, 4.190364388599058, -2.339424436463952, 1.5
585, 4.332588615081837, -2.758083106484241, 1.5
586, 4.43107847661308, -3.177903111647467, 1.5
587, 4.487855133176414, -3.592820119548422, 1.5
588, 4.5, -3.86577946669289, 1.5
589, 4.5, -4, 1.5
590, 0, 1, 1.5
591, 0.1491339258967889, 1, 1.5
592, 0.4524220893906428, 0.9865057035293491, 1.5
593, 0.9134409870583701, 0.9234205295700887, 1.5
594, 1.379907659461955, 0.8139873500909305, 1.5
595, 1.845083959484498, 0.6559604317767317, 1.5
596, 2.301566163031323, 0.4483864532163477, 1.5
597, 2.741598555192094, 0.1918095164065354, 1.5
598, 3.157455554855184, -0.1116177231038972, 1.5
599, 3.541858325382872, -0.458141674617128, 1.5
600, 3.888382276896103, -0.8425444451448159, 1.5
601, 4.191809516406535, -1.258401444807906, 1.5
602, 4.448386453216347, -1.698433836968677, 1.5
603, 4.655960431776732, -2.154916040515502, 1.5
604, 4.81398735009093, -2.620092340538045, 1.5
605, 4.923420529570088, -3.08655901294163, 1.5
606, 4.986505703529349, -3.547577910609357, 1.5
607, 5, -3.850866074103211, 1.5
608, 5, -4, 1.5
609, 0, 1.5, 1.5
610, 0.1640473184864679, 1.5, 1.5
611, 0.4976642983297072, 1.485156273882284, 1.5
612, 1.004785085764207, 1.415762582527098, 1.5
613, 1.51789842540815, 1.295386085100024, 1.5
614, 2.029592355432948, 1.121556474954405, 1.5
615, 2.531722779334456, 0.8932250985379828, 1.5
616, 3.015758410711304, 0.610990468047189, 1.5
617, 3.473201110340703, 0.2772205045857132, 1.5
618, 3.896044157921159, -0.1039558420788407, 1.5
619, 4.277220504585713, -0.5267988896592973, 1.5
620, 4.610990468047188, -0.984241589288696, 1.5
621, 4.893225098537982, -1.468277220665545, 1.5
622, 5.121556474954405, -1.970407644567053, 1.5
623, 5.295386085100024, -2.48210157459185, 1.5
624, 5.415762582527097, -2.995214914235794, 1.5
625, 5.485156273882283, -3.502335701670293, 1.5
626, 5.499999999999999, -3.835952681513532, 1.5
627, 5.5, -4, 1.5
628, 0, 1.833333333333333, 1.5
629, 0.1739895802129205, 1.833333333333333, 1.5
630, 0.5278257709557501, 1.817589987450907, 1.5
631, 1.065681151568099, 1.743990617831771, 1.5
632, 1.609892269372281, 1.616318575106086, 1.5
633, 2.152597952731914, 1.431953837072854, 1.5
634, 2.685160523536544, 1.189784195419073, 1.5
635, 3.19853164772411, 0.8904444358076247, 1.5
636, 3.683698147331048, 0.53644598971212, 1.5
637, 4.132168046280017, 0.1321680462800174, 1.5
638, 4.53644598971212, -0.3163018526689517, 1.5
639, 4.890444435807624, -0.8014683522758896, 1.5
640, 5.189784195419072, -1.314839476463456, 1.5
641, 5.431953837072854, -1.847402047268086, 1.5
642, 5.616318575106086, -2.39010773062772, 1.5
643, 5.743990617831771, -2.934318848431902, 1.5
644, 5.817589987450907, -3.47217422904425, 1.5
645, 5.833333333333333, -3.826010419787079, 1.5
646, 5.833333333333333, -4, 1.5
647, 0, 2, 1.5
648, 0.1789607110761468, 2, 1.5
649, 0.5429065072687713, 1.983806844235219, 1.5
650, 1.096129184470044, 1.908104635484106, 1.5
651, 1.655889191354346, 1.776784820109117, 1.5
652, 2.214100751381397, 1.587152518132078, 1.5
653, 2.761879395637588, 1.338063743859617, 1.5
654, 3.289918266230513, 1.030171419687842, 1.5
655, 3.788946665826221, 0.6660587322753231, 1.5
656, 4.250229990459446, 0.2502299904594461, 1.5
657, 4.666058732275324, -0.2110533341737793, 1.5
658, 5.030171419687841, -0.7100817337694871, 1.5
659, 5.338063743859617, -1.238120604362413, 1.5
660, 5.587152518132078, -1.785899248618603, 1.5
661, 5.776784820109117, -2.344110808645655, 1.5
662, 5.908104635484106, -2.903870815529956, 1.5
663, 5.983806844235218, -3.457093492731229, 1.5
664, 5.999999999999999, -3.821039288923853, 1.5
665, 6, -4, 1.5
666, 0, 0, 1.833333333333333
667, 0.1193071407174312, 0, 1.833333333333333
668, 0.3619376715125143, -0.01079543717652073, 1.833333333333333
669, 0.7307527896466959, -0.06126357634392905, 1.833333333333333
670, 1.103926127569564, -0.1488101199272556, 1.833333333333333
671, 1.476067167587598, -0.2752316545786146, 1.833333333333333
672, 1.841252930425059, -0.4412908374269218, 1.833333333333333
673, 2.193278844153675, -0.6465523868747717, 1.833333333333333
674, 2.525964443884147, -0.8892941784831178, 1.833333333333333
675, 2.833486660306297, -1.166513339693703, 1.833333333333333
676, 3.110705821516882, -1.474035556115853, 1.833333333333333
677, 3.353447613125228, -1.806721155846325, 1.833333333333333
678, 3.558709162573078, -2.158747069574942, 1.833333333333333
679, 3.724768345421385, -2.523932832412402, 1.833333333333333
680, 3.851189880072744, -2.896073872430437, 1.833333333333333
681, 3.938736423656071, -3.269247210353305, 1.833333333333333
682, 3.989204562823479, -3.638062328487486, 1.833333333333333
683, 4, -3.880692859282569, 1.833333333333333
684, 4, -4, 1.833333333333333
685, 0, 0.1666666666666667, 1.833333333333333
686, 0.1242782715806575, 0.1666666666666667, 1.833333333333333
687, 0.3770184078255356, 0.1554214196077909, 1.833333333333333
688, 0.7612008225486415, 0.1028504413084073, 1.833333333333333
689, 1.149923049551629, 0.01165612507577541, 1.833333333333333
690, 1.537569966237082, -0.1200329735193902, 1.833333333333333
691, 1.917971802526103, -0.2930112889863769, 1.833333333333333
692, 2.284665462660079, -0.5068254029945539, 1.833333333333333
693, 2.63121296237932, -0.7596814359199145, 1.833333333333333
694, 2.951548604485726, -1.048451395514274, 1.833333333333333
695, 3.240318564080085, -1.36878703762068, 1.833333333333333
696, 3.493174597005445, -1.715334537339921, 1.833333333333333
697, 3.706988711013623, -2.082028197473897, 1.833333333333333
698, 3.87996702648061, -2.462430033762919, 1.833333333333333
699, 4.011656125075776, -2.850076950448371, 1.833333333333333
700, 4.102850441308408, -3.238799177451359, 1.833333333333333
701, 4.155421419607792, -3.622981592174464, 1.833333333333333
702, 4.166666666666667, -3.875721728419343, 1.833333333333333
703, 4.166666666666667, -4, 1.833333333333333
704, 0, 0.5000000000000001, 1.833333333333333
705, 0.1342205333071101, 0.5000000000000001, 1.833333333333333
706, 0.4071798804515787, 0.4878551331764143, 1.833333333333333
707, 0.8220968883525334, 0.43107847661308, 1.833333333333333
708, 1.24191689351576, 0.3325886150818375, 1.833333333333333
709, 1.660575563536049, 0.1903643885990585, 1.833333333333333
710, 2.071409546728191, 0.003547807894712935, 1.833333333333333
711, 2.467438699672885, -0.2273714352341183, 1.833333333333333
712, 2.841709999369666, -0.5004559507935076, 1.833333333333333
713, 3.187672492844584, -0.8123275071554154, 1.833333333333333
714, 3.499544049206492, -1.158290000630334, 1.833333333333333
715, 3.772628564765881, -1.532561300327115, 1.833333333333333
716, 4.003547807894713, -1.928590453271809, 1.833333333333333
717, 4.190364388599058, -2.339424436463952, 1.833333333333333
718, 4.332588615081837, -2.758083106484241, 1.833333333333333
719, 4.43107847661308, -3.177903111647467, 1.833333333333333
720, 4.487855133176414, -3.592820119548422, 1.833333333333333
721, 4.5, -3.86577946669289, 1.833333333333333
722, 4.5, -4, 1.833333333333333
723, 0, 1, 1.833333333333333
724, 0.1491339258967889, 1, 1.833333333333333
725, 0.4524220893906428, 0.9865057035293491, 1.833333333333333
726, 0.9134409870583701, 0.9234205295700887, 1.833333333333333
727, 1.379907659461955, 0.8139873500909305, 1.833333333333333
728, 1.845083959484498, 0.6559604317767317, 1.833333333333333
729, 2.301566163031323, 0.4483864532163477, 1.833333333333333
730, 2.741598555192094, 0.1918095164065354, 1.833333333333333
731, 3.157455554855184, -0.1116177231038972, 1.833333333333333
732, 3.541858325382872, -0.458141674617128, 1.833333333333333
733, 3.888382276896103, -0.8425444451448159, 1.833333333333333
734, 4.191809516406535, -1.258401444807906, 1.833333333333333
735, 4.448386453216347, -1.698433836968677, 1.833333333333333
736, 4.655960431776732, -2.154916040515502, 1.833333333333333
737, 4.81398735009093, -2.620092340538045, 1.833333333333333
738, 4.923420529570088, -3.08655901294163, 1.833333333333333
739, 4.986505703529349, -3.547577910609357, 1.833333333333333
740, 5, -3.850866074103211, 1.833333333333333
741, 5, -4, 1.833333333333333
742, 0, 1.5, 1.833333333333333
743, 0.1640473184864679, 1.5, 1.833333333333333
744, 0.4976642983297072, 1.485156273882284, 1.833333333333333
745, 1.004785085764207, 1.415762582527098, 1.833333333333333
746, 1.51789842540815, 1.295386085100024, 1.833333333333333
747, 2.029592355432948, 1.121556474954405, 1.833333333333333
748, 2.531722779334456, 0.8932250985379828, 1.833333333333333
749, 3.015758410711304, 0.610990468047189, 1.833333333333333
750, 3.473201110340703, 0.2772205045857132, 1.833333333333333
751, 3.896044157921159, -0.1039558420788407, 1.833333333333333
752, 4.277220504585713, -0.5267988896592973, 1.833333333333333
753, 4.610990468047188, -0.984241589288696, 1.833333333333333
754, 4.893225098537982, -1.468277220665545, 1.833333333333333
755, 5.121556474954405, -1.970407644567053, 1.833333333333333
756, 5.295386085100024, -2.48210157459185, 1.833333333333333
757, 5.415762582527097, -2.995214914235794, 1.833333333333333
758, 5.485156273882283, -3.502335701670293, 1.833333333333333
759, 5.499999999999999, -3.835952681513532, 1.833333333333333
760, 5.5, -4, 1.833333333333333
761, 0, 1.833333333333333, 1.833333333333333
762, 0.1739895802129205, 1.833333333333333, 1.833333333333333
763, 0.5278257709557501, 1.817589987450907, 1.833333333333333
764, 1.065681151568099, 1.743990617831771, 1.833333333333333
765, 1.609892269372281, 1.616318575106086, 1.833333333333333
766, 2.152597952731914, 1.431953837072854, 1.833333333333333
767, 2.685160523536544, 1.189784195419073, 1.833333333333333
768, 3.19853164772411, 0.8904444358076247, 1.833333333333333
769, 3.683698147331048, 0.53644598971212, 1.833333333333333
770, 4.132168046280017, 0.1321680462800174, 1.833333333333333
771, 4.53644598971212, -0.3163018526689517, 1.833333333333333
772, 4.890444435807624, -0.8014683522758896, 1.833333333333333
773, 5.189784195419072, -1.314839476463456, 1.833333333333333
774, 5.431953837072854, -1.847402047268086, 1.833333333333333
775, 5.616318575106086, -2.39010773062772, 1.833333333333333
776, 5.743990617831771, -2.934318848431902, 1.833333333333333
777, 5.817589987450907, -3.47217422904425, 1.833333333333333
778, 5.833333333333333, -3.826010419787079, 1.833333333333333
779, 5.833333333333333, -4, 1.833333333333333
780, 0, 2, 1.833333333333333
781, 0.1789607110761468, 2, 1.833333333333333
782, 0.5429065072687713, 1.983806844235219, 1.833333333333333
783, 1.096129184470044, 1.908104635484106, 1.833333333333333
784, 1.655889191354346, 1.776784820109117, 1.833333333333333
785, 2.214100751381397, 1.587152518132078, 1.833333333333333
786, 2.761879395637588, 1.338063743859617, 1.833333333333333
787, 3.289918266230513, 1.030171419687842, 1.833333333333333
788, 3.788946665826221, 0.6660587322753231, 1.833333333333333
789, 4.250229990459446, 0.2502299904594461, 1.833333333333333
790, 4.666058732275324, -0.2110533341737793, 1.833333333333333
791, 5.030171419687841, -0.7100817337694871, 1.833333333333333
792, 5.338063743859617, -1.238120604362413, 1.833333333333333
793, 5.587152518132078, -1.785899248618603, 1.833333333333333
794, 5.776784820109117, -2.344110808645655, 1.833333333333333
795, 5.908104635484106, -2.903870815529956, 1.833333333333333
796, 5.983806844235218, -3.457093492731229, 1.833333333333333
797, 5.999999999999999, -3.821039288923853, 1.833333333333333
798, 6, -4, 1.833333333333333
799, 0, 0, 2
800, 0.1193071407174312, 0, 2
801, 0.3619376715125143, -0.01079543717652073, 2
802, 0.7307527896466959, -0.06126357634392905, 2
803, 1.103926127569564, -0.1488101199272556, 2
804, 1.476067167587598, -0.2752316545786146, 2
805, 1.841252930425059, -0.4412908374269218, 2
806, 2.193278844153675, -0.6465523868747717, 2
807, 2.525964443884147, -0.8892941784831178, 2
808, 2.833486660306297, -1.166513339693703, 2
809, 3.110705821516882, -1.474035556115853, 2
810, 3.353447613125228, -1.806721155846325, 2
811, 3.558709162573078, -2.158747069574942, 2
812, 3.724768345421385, -2.523932832412402, 2
813, 3.851189880072744, -2.896073872430437, 2
814, 3.938736423656071, -3.269247210353305, 2
815, 3.989204562823479, -3.638062328487486, 2
816, 4, -3.880692859282569, 2
817, 4, -4, 2
818, 0, 0.1666666666666667, 2
819, 0.1242782715806575, 0.1666666666666667, 2
820, 0.3770184078255356, 0.1554214196077909, 2
821, 0.7612008225486415, 0.1028504413084073, 2
822, 1.149923049551629, 0.01165612507577541, 2
823, 1.537569966237082, -0.1200329735193902, 2
824, 1.917971802526103, -0.2930112889863769, 2
825, 2.284665462660079, -0.5068254029945539, 2
826, 2.63121296237932, -0.7596814359199145, 2
827, 2.951548604485726, -1.048451395514274, 2
828, 3.240318564080085, -1.36878703762068, 2
829, 3.493174597005445, -1.715334537339921, 2
830, 3.706988711013623, -2.082028197473897, 2
831, 3.87996702648061, -2.462430033762919, 2
832, 4.011656125075776, -2.850076950448371, 2
833, 4.102850441308408, -3.238799177451359, 2
834, 4.155421419607792, -3.622981592174464, 2
835, 4.166666666666667, -3.875721728419343, 2
836, 4.166666666666667, -4, 2
837, 0, 0.5000000000000001, 2
838, 0.1342205333071101, 0.5000000000000001, 2
839, 0.4071798804515787, 0.4878551331764143, 2
840, 0.8220968883525334, 0.43107847661308, 2
841, 1.24191689351576, 0.3325886150818375, 2
842, 1.660575563536049, 0.1903643885990585, 2
843, 2.071409546728191, 0.003547807894712935, 2
844, 2.467438699672885, -0.2273714352341183, 2
845, 2.841709999369666, -0.5004559507935076, 2
846, 3.187672492844584, -0.8123275071554154, 2
847, 3.499544049206492, -1.158290000630334, 2
848, 3.772628564765881, -1.532561300327115, 2
849, 4.003547807894713, -1.928590453271809, 2
850, 4.190364388599058, -2.339424436463952, 2
851, 4.332588615081837, -2.758083106484241, 2
852, 4.43107847661308, -3.177903111647467, 2
853, 4.487855133176414, -3.592820119548422, 2
854, 4.5, -3.86577946669289, 2
855, 4.5, -4, 2
856, 0, 1, 2
857, 0.1491339258967889, 1, 2
858, 0.4524220893906428, 0.9865057035293491, 2
859, 0.9134409870583701, 0.9234205295700887, 2
860, 1.379907659461955, 0.8139873500909305, 2
861, 1.845083959484498, 0.6559604317767317, 2
862, 2.301566163031323, 0.4483864532163477, 2
863, 2.741598555192094, 0.1918095164065354, 2
864, 3.157455554855184, -0.1116177231038972, 2
865, 3.541858325382872, -0.458141674617128, 2
866, 3.888382276896103, -0.8425444451448159, 2
867, 4.191809516406535, -1.258401444807906, 2
868, 4.448386453216347, -1.698433836968677, 2
869, 4.655960431776732, -2.154916040515502, 2
870, 4.81398735009093, -2.620092340538045, 2
871, 4.923420529570088, -3.08655901294163, 2
872, 4.986505703529349, -3.547577910609357, 2
873, 5, -3.850866074103211, 2
874, 5, -4, 2
875, 0, 1.5, 2
876, 0.1640473184864679, 1.5, 2
877, 0.4976642983297072, 1.485156273882284, 2
878, 1.004785085764207, 1.415762582527098, 2
879, 1.51789842540815, 1.295386085100024, 2
880, 2.029592355432948, 1.121556474954405, 2
881, 2.531722779334456, 0.8932250985379828, 2
882, 3.015758410711304, 0.610990468047189, 2
883, 3.473201110340703, 0.2772205045857132, 2
884, 3.896044157921159, -0.1039558420788407, 2
885, 4.277220504585713, -0.5267988896592973, 2
886, 4.610990468047188, -0.984241589288696, 2
887, 4.893225098537982, -1.468277220665545, 2
888, 5.121556474954405, -1.970407644567053, 2
889, 5.295386085100024, -2.48210157459185, 2
890, 5.415762582527097, -2.995214914235794, 2
891, 5.485156273882283, -3.502335701670293, 2
892, 5.499999999999999, -3.835952681513532, 2
893, 5.5, -4, 2
894, 0, 1.833333333333333, 2
895, 0.1739895802129205, 1.833333333333333, 2
896, 0.5278257709557501, 1.817589987450907, 2
897, 1.065681151568099, 1.743990617831771, 2
898, 1.609892269372281, 1.616318575106086, 2
899, 2.152597952731914, 1.431953837072854, 2
900, 2.685160523536544, 1.189784195419073, 2
901, 3.19853164772411, 0.8904444358076247, 2
902, 3.683698147331048, 0.53644598971212, 2
903, 4.132168046280017, 0.1321680462800174, 2
904, 4.53644598971212, -0.3163018526689517, 2
905, 4.890444435807624, -0.8014683522758896, 2
906, 5.189784195419072, -1.314839476463456, 2
907, 5.431953837072854, -1.847402047268086, 2
908, 5.616318575106086, -2.39010773062772, 2
909, 5.743990617831771, -2.934318848431902, 2
910, 5.817589987450907, -3.47217422904425, 2
911, 5.833333333333333, -3.826010419787079, 2
912, 5.833333333333333, -4, 2
913, 0, 2, 2
914, 0.1789607110761468, 2, 2
915, 0.5429065072687713, 1.983806844235219, 2
916, 1.096129184470044, 1.908104635484106, 2
917, 1.655889191354346, 1.776784820109117, 2
918, 2.214100751381397, 1.587152518132078, 2
919, 2.761879395637588, 1.338063743859617, 2
920, 3.289918266230513, 1.030171419687842, 2
921, 3.788946665826221, 0.6660587322753231, 2
922, 4.250229990459446, 0.2502299904594461, 2
923, 4.666058732275324, -0.2110533341737793, 2
924, 5.030171419687841, -0.7100817337694871, 2
925, 5.338063743859617, -1.238120604362413, 2
926, 5.587152518132078, -1.785899248618603, 2
927, 5.776784820109117, -2.344110808645655, 2
928, 5.908104635484106, -2.903870815529956, 2
929, 5.983806844235218, -3.457093492731229, 2
930, 5.999999999999999, -3.821039288923853, 2
931, 6, -4, 2
**
*USER ELEMENT, NODES=64, TYPE=U3, PROPERTIES=23, COORDINATES=3
1, 2, 3
**
*ELEMENT, TYPE=U3, ELSET=ELSET1
1,
1,2,3,4,
20,21,22,23,
39,40,41,42,
58,59,60,61,
134,135,136,137,
153,154,155,156,
172,173,174,175,
191,192,193,194,
267,268,269,270,
286,287,288,289,
305,306,307,308,
324,325,326,327,
400,401,402,403,
419,420,421,422,
438,439,440,441,
457,458,459,460
2,
2,3,4,5,
21,22,23,24,
40,41,42,43,
59,60,61,62,
135,136,137,138,
154,155,156,157,
173,174,175,176,
192,193,194,195,
268,269,270,271,
287,288,289,290,
306,307,308,309,
325,326,327,328,
401,402,403,404,
420,421,422,423,
439,440,441,442,
458,459,460,461
3,
3,4,5,6,
22,23,24,25,
41,42,43,44,
60,61,62,63,
136,137,138,139,
155,156,157,158,
174,175,176,177,
193,194,195,196,
269,270,271,272,
288,289,290,291,
307,308,309,310,
326,327,328,329,
402,403,404,405,
421,422,423,424,
440,441,442,443,
459,460,461,462
4,
4,5,6,7,
23,24,25,26,
42,43,44,45,
61,62,63,64,
137,138,139,140,
156,157,158,159,
175,176,177,178,
194,195,196,197,
270,271,272,273,
289,290,291,292,
308,309,310,311,
327,328,329,330,
403,404,405,406,
422,423,424,425,
441,442,443,444,
460,461,462,463
5,
5,6,7,8,
24,25,26,27,
43,44,45,46,
62,63,64,65,
138,139,140,141,
157,158,159,160,
176,177,178,179,
195,196,197,198,
271,272,273,274,
290,291,292,293,
309,310,311,312,
328,329,330,331,
404,405,406,407,
423,424,425,426,
442,443,444,445,
461,462,463,464
6,
6,7,8,9,
25,26,27,28,
44,45,46,47,
63,64,65,66,
139,140,141,142,
158,159,160,161,
177,178,179,180,
196,197,198,199,
272,273,274,275,
291,292,293,294,
310,311,312,313,
329,330,331,332,
405,406,407,408,
424,425,426,427,
443,444,445,446,
462,463,464,465
7,
7,8,9,10,
26,27,28,29,
45,46,47,48,
64,65,66,67,
140,141,142,143,
159,160,161,162,
178,179,180,181,
197,198,199,200,
273,274,275,276,
292,293,294,295,
311,312,313,314,
330,331,332,333,
406,407,408,409,
425,426,427,428,
444,445,446,447,
463,464,465,466
8,
8,9,10,11,
27,28,29,30,
46,47,48,49,
65,66,67,68,
141,142,143,144,
160,161,162,163,
179,180,181,182,
198,199,200,201,
274,275,276,277,
293,294,295,296,
312,313,314,315,
331,332,333,334,
407,408,409,410,
426,427,428,429,
445,446,447,448,
464,465,466,467
9,
9,10,11,12,
28,29,30,31,
47,48,49,50,
66,67,68,69,
142,143,144,145,
161,162,163,164,
180,181,182,183,
199,200,201,202,
275,276,277,278,
294,295,296,297,
313,314,315,316,
332,333,334,335,
408,409,410,411,
427,428,429,430,
446,447,448,449,
465,466,467,468
10,
10,11,12,13,
29,30,31,32,
48,49,50,51,
67,68,69,70,
143,144,145,146,
162,163,164,165,
181,182,183,184,
200,201,202,203,
276,277,278,279,
295,296,297,298,
314,315,316,317,
333,334,335,336,
409,410,411,412,
428,429,430,431,
447,448,449,450,
466,467,468,469
11,
11,12,13,14,
30,31,32,33,
49,50,51,52,
68,69,70,71,
144,145,146,147,
163,164,165,166,
182,183,184,185,
201,202,203,204,
277,278,279,280,
296,297,298,299,
315,316,317,318,
334,335,336,337,
410,411,412,413,
429,430,431,432,
448,449,450,451,
467,468,469,470
12,
12,13,14,15,
31,32,33,34,
50,51,52,53,
69,70,71,72,
145,146,147,148,
164,165,166,167,
183,184,185,186,
202,203,204,205,
278,279,280,281,
297,298,299,300,
316,317,318,319,
335,336,337,338,
411,412,413,414,
430,431,432,433,
449,450,451,452,
468,469,470,471
13,
13,14,15,16,
32,33,34,35,
51,52,53,54,
70,71,72,73,
146,147,148,149,
165,166,167,168,
184,185,186,187,
203,204,205,206,
279,280,281,282,
298,299,300,301,
317,318,319,320,
336,337,338,339,
412,413,414,415,
431,432,433,434,
450,451,452,453,
469,470,471,472
14,
14,15,16,17,
33,34,35,36,
52,53,54,55,
71,72,73,74,
147,148,149,150,
166,167,168,169,
185,186,187,188,
204,205,206,207,
280,281,282,283,
299,300,301,302,
318,319,320,321,
337,338,339,340,
413,414,415,416,
432,433,434,435,
451,452,453,454,
470,471,472,473
15,
15,16,17,18,
34,35,36,37,
53,54,55,56,
72,73,74,75,
148,149,150,151,
167,168,169,170,
186,187,188,189,
205,206,207,208,
281,282,283,284,
300,301,302,303,
319,320,321,322,
338,339,340,341,
414,415,416,417,
433,434,435,436,
452,453,454,455,
471,472,473,474
16,
16,17,18,19,
35,36,37,38,
54,55,56,57,
73,74,75,76,
149,150,151,152,
168,169,170,171,
187,188,189,190,
206,207,208,209,
282,283,284,285,
301,302,303,304,
320,321,322,323,
339,340,341,342,
415,416,417,418,
434,435,436,437,
453,454,455,456,
472,473,474,475
17,
20,21,22,23,
39,40,41,42,
58,59,60,61,
77,78,79,80,
153,154,155,156,
172,173,174,175,
191,192,193,194,
210,211,212,213,
286,287,288,289,
305,306,307,308,
324,325,326,327,
343,344,345,346,
419,420,421,422,
438,439,440,441,
457,458,459,460,
476,477,478,479
18,
21,22,23,24,
40,41,42,43,
59,60,61,62,
78,79,80,81,
154,155,156,157,
173,174,175,176,
192,193,194,195,
211,212,213,214,
287,288,289,290,
306,307,308,309,
325,326,327,328,
344,345,346,347,
420,421,422,423,
439,440,441,442,
458,459,460,461,
477,478,479,480
19,
22,23,24,25,
41,42,43,44,
60,61,62,63,
79,80,81,82,
155,156,157,158,
174,175,176,177,
193,194,195,196,
212,213,214,215,
288,289,290,291,
307,308,309,310,
326,327,328,329,
345,346,347,348,
421,422,423,424,
440,441,442,443,
459,460,461,462,
478,479,480,481
20,
23,24,25,26,
42,43,44,45,
61,62,63,64,
80,81,82,83,
156,157,158,159,
175,176,177,178,
194,195,196,197,
213,214,215,216,
289,290,291,292,
308,309,310,311,
327,328,329,330,
346,347,348,349,
422,423,424,425,
441,442,443,444,
460,461,462,463,
479,480,481,482
21,
24,25,26,27,
43,44,45,46,
62,63,64,65,
81,82,83,84,
157,158,159,160,
176,177,178,179,
195,196,197,198,
214,215,216,217,
290,291,292,293,
309,310,311,312,
328,329,330,331,
347,348,349,350,
423,424,425,426,
442,443,444,445,
461,462,463,464,
480,481,482,483
22,
25,26,27,28,
44,45,46,47,
63,64,65,66,
82,83,84,85,
158,159,160,161,
177,178,179,180,
196,197,198,199,
215,216,217,218,
291,292,293,294,
310,311,312,313,
329,330,331,332,
348,349,350,351,
424,425,426,427,
443,444,445,446,
462,463,464,465,
481,482,483,484
23,
26,27,28,29,
45,46,47,48,
64,65,66,67,
83,84,85,86,
159,160,161,162,
178,179,180,181,
197,198,199,200,
216,217,218,219,
292,293,294,295,
311,312,313,314,
330,331,332,333,
349,350,351,352,
425,426,427,428,
444,445,446,447,
463,464,465,466,
482,483,484,485
24,
27,28,29,30,
46,47,48,49,
65,66,67,68,
84,85,86,87,
160,161,162,163,
179,180,181,182,
198,199,200,201,
217,218,219,220,
293,294,295,296,
312,313,314,315,
331,332,333,334,
350,351,352,353,
426,427,428,429,
445,446,447,448,
464,465,466,467,
483,484,485,486
25,
28,29,30,31,
47,48,49,50,
66,67,68,69,
85,86,87,88,
161,162,163,164,
180,181,182,183,
199,200,201,202,
218,219,220,221,
294,295,296,297,
313,314,315,316,
332,333,334,335,
351,352,353,354,
427,428,429,430,
446,447,448,449,
465,466,467,468,
484,485,486,487
26,
29,30,31,32,
48,49,50,51,
67,68,69,70,
86,87,88,89,
162,163,164,165,
181,182,183,184,
200,201,202,203,
219,220,221,222,
295,296,297,298,
314,315,316,317,
333,334,335,336,
352,353,354,355,
428,429,430,431,
447,448,449,450,
466,467,468,469,
485,486,487,488
27,
30,31,32,33,
49,50,51,52,
68,69,70,71,
87,88,89,90,
163,164,165,166,
182,183,184,185,
201,202,203,204,
220,221,222,223,
296,297,298,299,
315,316,317,318,
334,335,336,337,
353,354,355,356,
429,430,431,432,
448,449,450,451,
467,468,469,470,
486,487,488,489
28,
31,32,33,34,
50,51,52,53,
69,70,71,72,
88,89,90,91,
164,165,166,167,
183,184,185,186,
202,203,204,205,
221,222,223,224,
297,298,299,300,
316,317,318,319,
335,336,337,338,
354,355,356,357,
430,431,432,433,
449,450,451,452,
468,469,470,471,
487,488,489,490
29,
32,33,34,35,
51,52,53,54,
70,71,72,73,
89,90,91,92,
165,166,167,168,
184,185,186,187,
203,204,205,206,
222,223,224,225,
298,299,300,301,
317,318,319,320,
336,337,338,339,
355,356,357,358,
431,432,433,434,
450,451,452,453,
469,470,471,472,
488,489,490,491
30,
33,34,35,36,
52,53,54,55,
71,72,73,74,
90,91,92,93,
166,167,168,169,
185,186,187,188,
204,205,206,207,
223,224,225,226,
299,300,301,302,
318,319,320,321,
337,338,339,340,
356,357,358,359,
432,433,434,435,
451,452,453,454,
470,471,472,473,
489,490,491,492
31,
34,35,36,37,
53,54,55,56,
72,73,74,75,
91,92,93,94,
167,168,169,170,
186,187,188,189,
205,206,207,208,
224,225,226,227,
300,301,302,303,
319,320,321,322,
338,339,340,341,
357,358,359,360,
433,434,435,436,
452,453,454,455,
471,472,473,474,
490,491,492,493
32,
35,36,37,38,
54,55,56,57,
73,74,75,76,
92,93,94,95,
168,169,170,171,
187,188,189,190,
206,207,208,209,
225,226,227,228,
301,302,303,304,
320,321,322,323,
339,340,341,342,
358,359,360,361,
434,435,436,437,
453,454,455,456,
472,473,474,475,
491,492,493,494
33,
39,40,41,42,
58,59,60,61,
77,78,79,80,
96,97,98,99,
172,173,174,175,
191,192,193,194,
210,211,212,213,
229,230,231,232,
305,306,307,308,
324,325,326,327,
343,344,345,346,
362,363,364,365,
438,439,440,441,
457,458,459,460,
476,477,478,479,
495,496,497,498
34,
40,41,42,43,
59,60,61,62,
78,79,80,81,
97,98,99,100,
173,174,175,176,
192,193,194,195,
211,212,213,214,
230,231,232,233,
306,307,308,309,
325,326,327,328,
344,345,346,347,
363,364,365,366,
439,440,441,442,
458,459,460,461,
477,478,479,480,
496,497,498,499
35,
41,42,43,44,
60,61,62,63,
79,80,81,82,
98,99,100,101,
174,175,176,177,
193,194,195,196,
212,213,214,215,
231,232,233,234,
307,308,309,310,
326,327,328,329,
345,346,347,348,
364,365,366,367,
440,441,442,443,
459,460,461,462,
478,479,480,481,
497,498,499,500
36,
42,43,44,45,
61,62,63,64,
80,81,82,83,
99,100,101,102,
175,176,177,178,
194,195,196,197,
213,214,215,216,
232,233,234,235,
308,309,310,311,
327,328,329,330,
346,347,348,349,
365,366,367,368,
441,442,443,444,
460,461,462,463,
479,480,481,482,
498,499,500,501
37,
43,44,45,46,
62,63,64,65,
81,82,83,84,
100,101,102,103,
176,177,178,179,
195,196,197,198,
214,215,216,217,
233,234,235,236,
309,310,311,312,
328,329,330,331,
347,348,349,350,
366,367,368,369,
442,443,444,445,
461,462,463,464,
480,481,482,483,
499,500,501,502
38,
44,45,46,47,
63,64,65,66,
82,83,84,85,
101,102,103,104,
177,178,179,180,
196,197,198,199,
215,216,217,218,
234,235,236,237,
310,311,312,313,
329,330,331,332,
348,349,350,351,
367,368,369,370,
443,444,445,446,
462,463,464,465,
481,482,483,484,
500,501,502,503
39,
45,46,47,48,
64,65,66,67,
83,84,85,86,
102,103,104,105,
178,179,180,181,
197,198,199,200,
216,217,218,219,
235,236,237,238,
311,312,313,314,
330,331,332,333,
349,350,351,352,
368,369,370,371,
444,445,446,447,
463,464,465,466,
482,483,484,485,
501,502,503,504
40,
46,47,48,49,
65,66,67,68,
84,85,86,87,
103,104,105,106,
179,180,181,182,
198,199,200,201,
217,218,219,220,
236,237,238,239,
312,313,314,315,
331,332,333,334,
350,351,352,353,
369,370,371,372,
445,446,447,448,
464,465,466,467,
483,484,485,486,
502,503,504,505
41,
47,48,49,50,
66,67,68,69,
85,86,87,88,
104,105,106,107,
180,181,182,183,
199,200,201,202,
218,219,220,221,
237,238,239,240,
313,314,315,316,
332,333,334,335,
351,352,353,354,
370,371,372,373,
446,447,448,449,
465,466,467,468,
484,485,486,487,
503,504,505,506
42,
48,49,50,51,
67,68,69,70,
86,87,88,89,
105,106,107,108,
181,182,183,184,
200,201,202,203,
219,220,221,222,
238,239,240,241,
314,315,316,317,
333,334,335,336,
352,353,354,355,
371,372,373,374,
447,448,449,450,
466,467,468,469,
485,486,487,488,
504,505,506,507
43,
49,50,51,52,
68,69,70,71,
87,88,89,90,
106,107,108,109,
182,183,184,185,
201,202,203,204,
220,221,222,223,
239,240,241,242,
315,316,317,318,
334,335,336,337,
353,354,355,356,
372,373,374,375,
448,449,450,451,
467,468,469,470,
486,487,488,489,
505,506,507,508
44,
50,51,52,53,
69,70,71,72,
88,89,90,91,
107,108,109,110,
183,184,185,186,
202,203,204,205,
221,222,223,224,
240,241,242,243,
316,317,318,319,
335,336,337,338,
354,355,356,357,
373,374,375,376,
449,450,451,452,
468,469,470,471,
487,488,489,490,
506,507,508,509
45,
51,52,53,54,
70,71,72,73,
89,90,91,92,
108,109,110,111,
184,185,186,187,
203,204,205,206,
222,223,224,225,
241,242,243,244,
317,318,319,320,
336,337,338,339,
355,356,357,358,
374,375,376,377,
450,451,452,453,
469,470,471,472,
488,489,490,491,
507,508,509,510
46,
52,53,54,55,
71,72,73,74,
90,91,92,93,
109,110,111,112,
185,186,187,188,
204,205,206,207,
223,224,225,226,
242,243,244,245,
318,319,320,321,
337,338,339,340,
356,357,358,359,
375,376,377,378,
451,452,453,454,
470,471,472,473,
489,490,491,492,
508,509,510,511
47,
53,54,55,56,
72,73,74,75,
91,92,93,94,
110,111,112,113,
186,187,188,189,
205,206,207,208,
224,225,226,227,
243,244,245,246,
319,320,321,322,
338,339,340,341,
357,358,359,360,
376,377,378,379,
452,453,454,455,
471,472,473,474,
490,491,492,493,
509,510,511,512
48,
54,55,56,57,
73,74,75,76,
92,93,94,95,
111,112,113,114,
187,188,189,190,
206,207,208,209,
225,226,227,228,
244,245,246,247,
320,321,322,323,
339,340,341,342,
358,359,360,361,
377,378,379,380,
453,454,455,456,
472,473,474,475,
491,492,493,494,
510,511,512,513
49,
58,59,60,61,
77,78,79,80,
96,97,98,99,
115,116,117,118,
191,192,193,194,
210,211,212,213,
229,230,231,232,
248,249,250,251,
324,325,326,327,
343,344,345,346,
362,363,364,365,
381,382,383,384,
457,458,459,460,
476,477,478,479,
495,496,497,498,
514,515,516,517
50,
59,60,61,62,
78,79,80,81,
97,98,99,100,
116,117,118,119,
192,193,194,195,
211,212,213,214,
230,231,232,233,
249,250,251,252,
325,326,327,328,
344,345,346,347,
363,364,365,366,
382,383,384,385,
458,459,460,461,
477,478,479,480,
496,497,498,499,
515,516,517,518
51,
60,61,62,63,
79,80,81,82,
98,99,100,101,
117,118,119,120,
193,194,195,196,
212,213,214,215,
231,232,233,234,
250,251,252,253,
326,327,328,329,
345,346,347,348,
364,365,366,367,
383,384,385,386,
459,460,461,462,
478,479,480,481,
497,498,499,500,
516,517,518,519
52,
61,62,63,64,
80,81,82,83,
99,100,101,102,
118,119,120,121,
194,195,196,197,
213,214,215,216,
232,233,234,235,
251,252,253,254,
327,328,329,330,
346,347,348,349,
365,366,367,368,
384,385,386,387,
460,461,462,463,
479,480,481,482,
498,499,500,501,
517,518,519,520
53,
62,63,64,65,
81,82,83,84,
100,101,102,103,
119,120,121,122,
195,196,197,198,
214,215,216,217,
233,234,235,236,
252,253,254,255,
328,329,330,331,
347,348,349,350,
366,367,368,369,
385,386,387,388,
461,462,463,464,
480,481,482,483,
499,500,501,502,
518,519,520,521
54,
63,64,65,66,
82,83,84,85,
101,102,103,104,
120,121,122,123,
196,197,198,199,
215,216,217,218,
234,235,236,237,
253,254,255,256,
329,330,331,332,
348,349,350,351,
367,368,369,370,
386,387,388,389,
462,463,464,465,
481,482,483,484,
500,501,502,503,
519,520,521,522
55,
64,65,66,67,
83,84,85,86,
102,103,104,105,
121,122,123,124,
197,198,199,200,
216,217,218,219,
235,236,237,238,
254,255,256,257,
330,331,332,333,
349,350,351,352,
368,369,370,371,
387,388,389,390,
463,464,465,466,
482,483,484,485,
501,502,503,504,
520,521,522,523
56,
65,66,67,68,
84,85,86,87,
103,104,105,106,
122,123,124,125,
198,199,200,201,
217,218,219,220,
236,237,238,239,
255,256,257,258,
331,332,333,334,
350,351,352,353,
369,370,371,372,
388,389,390,391,
464,465,466,467,
483,484,485,486,
502,503,504,505,
521,522,523,524
57,
66,67,68,69,
85,86,87,88,
104,105,106,107,
123,124,125,126,
199,200,201,202,
218,219,220,221,
237,238,239,240,
256,257,258,259,
332,333,334,335,
351,352,353,354,
370,371,372,373,
389,390,391,392,
465,466,467,468,
484,485,486,487,
503,504,505,506,
522,523,524,525
58,
67,68,69,70,
86,87,88,89,
105,106,107,108,
124,125,126,127,
200,201,202,203,
219,220,221,222,
238,239,240,241,
257,258,259,260,
333,334,335,336,
352,353,354,355,
371,372,373,374,
390,391,392,393,
466,467,468,469,
485,486,487,488,
504,505,506,507,
523,524,525,526
59,
68,69,70,71,
87,88,89,90,
106,107,108,109,
125,126,127,128,
201,202,203,204,
220,221,222,223,
239,240,241,242,
258,259,260,261,
334,335,336,337,
353,354,355,356,
372,373,374,375,
391,392,393,394,
467,468,469,470,
486,487,488,489,
505,506,507,508,
524,525,526,527
60,
69,70,71,72,
88,89,90,91,
107,108,109,110,
126,127,128,129,
202,203,204,205,
221,222,223,224,
240,241,242,243,
259,260,261,262,
335,336,337,338,
354,355,356,357,
373,374,375,376,
392,393,394,395,
468,469,470,471,
487,488,489,490,
506,507,508,509,
525,526,527,528
61,
70,71,72,73,
89,90,91,92,
108,109,110,111,
127,128,129,130,
203,204,205,206,
222,223,224,225,
241,242,243,244,
260,261,262,263,
336,337,338,339,
355,356,357,358,
374,375,376,377,
393,394,395,396,
469,470,471,472,
488,489,490,491,
507,508,509,510,
526,527,528,529
62,
71,72,73,74,
90,91,92,93,
109,110,111,112,
128,129,130,131,
204,205,206,207,
223,224,225,226,
242,243,244,245,
261,262,263,264,
337,338,339,340,
356,357,358,359,
375,376,377,378,
394,395,396,397,
470,471,472,473,
489,490,491,492,
508,509,510,511,
527,528,529,530
63,
72,73,74,75,
91,92,93,94,
110,111,112,113,
129,130,131,132,
205,206,207,208,
224,225,226,227,
243,244,245,246,
262,263,264,265,
338,339,340,341,
357,358,359,360,
376,377,378,379,
395,396,397,398,
471,472,473,474,
490,491,492,493,
509,510,511,512,
528,529,530,531
64,
73,74,75,76,
92,93,94,95,
111,112,113,114,
130,131,132,133,
206,207,208,209,
225,226,227,228,
244,245,246,247,
263,264,265,266,
339,340,341,342,
358,359,360,361,
377,378,379,380,
396,397,398,399,
472,473,474,475,
491,492,493,494,
510,511,512,513,
529,530,531,532
65,
134,135,136,137,
153,154,155,156,
172,173,174,175,
191,192,193,194,
267,268,269,270,
286,287,288,289,
305,306,307,308,
324,325,326,327,
400,401,402,403,
419,420,421,422,
438,439,440,441,
457,458,459,460,
533,534,535,536,
552,553,554,555,
571,572,573,574,
590,591,592,593
66,
135,136,137,138,
154,155,156,157,
173,174,175,176,
192,193,194,195,
268,269,270,271,
287,288,289,290,
306,307,308,309,
325,326,327,328,
401,402,403,404,
420,421,422,423,
439,440,441,442,
458,459,460,461,
534,535,536,537,
553,554,555,556,
572,573,574,575,
591,592,593,594
67,
136,137,138,139,
155,156,157,158,
174,175,176,177,
193,194,195,196,
269,270,271,272,
288,289,290,291,
307,308,309,310,
326,327,328,329,
402,403,404,405,
421,422,423,424,
440,441,442,443,
459,460,461,462,
535,536,537,538,
554,555,556,557,
573,574,575,576,
592,593,594,595
68,
137,138,139,140,
156,157,158,159,
175,176,177,178,
194,195,196,197,
270,271,272,273,
289,290,291,292,
308,309,310,311,
327,328,329,330,
403,404,405,406,
422,423,424,425,
441,442,443,444,
460,461,462,463,
536,537,538,539,
555,556,557,558,
574,575,576,577,
593,594,595,596
69,
138,139,140,141,
157,158,159,160,
176,177,178,179,
195,196,197,198,
271,272,273,274,
290,291,292,293,
309,310,311,312,
328,329,330,331,
404,405,406,407,
423,424,425,426,
442,443,444,445,
461,462,463,464,
537,538,539,540,
556,557,558,559,
575,576,577,578,
594,595,596,597
70,
139,140,141,142,
158,159,160,161,
177,178,179,180,
196,197,198,199,
272,273,274,275,
291,292,293,294,
310,311,312,313,
329,330,331,332,
405,406,407,408,
424,425,426,427,
443,444,445,446,
462,463,464,465,
538,539,540,541,
557,558,559,560,
576,577,578,579,
595,596,597,598
71,
140,141,142,143,
159,160,161,162,
178,179,180,181,
197,198,199,200,
273,274,275,276,
292,293,294,295,
311,312,313,314,
330,331,332,333,
406,407,408,409,
425,426,427,428,
444,445,446,447,
463,464,465,466,
539,540,541,542,
558,559,560,561,
577,578,579,580,
596,597,598,599
72,
141,142,143,144,
160,161,162,163,
179,180,181,182,
198,199,200,201,
274,275,276,277,
293,294,295,296,
312,313,314,315,
331,332,333,334,
407,408,409,410,
426,427,428,429,
445,446,447,448,
464,465,466,467,
540,541,542,543,
559,560,561,562,
578,579,580,581,
597,598,599,600
73,
142,143,144,145,
161,162,163,164,
180,181,182,183,
199,200,201,202,
275,276,277,278,
294,295,296,297,
313,314,315,316,
332,333,334,335,
408,409,410,411,
427,428,429,430,
446,447,448,449,
465,466,467,468,
541,542,543,544,
560,561,562,563,
579,580,581,582,
598,599,600,601
74,
143,144,145,146,
162,163,164,165,
181,182,183,184,
200,201,202,203,
276,277,278,279,
295,296,297,298,
314,315,316,317,
333,334,335,336,
409,410,411,412,
428,429,430,431,
447,448,449,450,
466,467,468,469,
542,543,544,545,
561,562,563,564,
580,581,582,583,
599,600,601,602
75,
144,145,146,147,
163,164,165,166,
182,183,184,185,
201,202,203,204,
277,278,279,280,
296,297,298,299,
315,316,317,318,
334,335,336,337,
410,411,412,413,
429,430,431,432,
448,449,450,451,
467,468,469,470,
543,544,545,546,
562,563,564,565,
581,582,583,584,
600,601,602,603
76,
145,146,147,148,
164,165,166,167,
183,184,185,186,
202,203,204,205,
278,279,280,281,
297,298,299,300,
316,317,318,319,
335,336,337,338,
411,412,413,414,
430,431,432,433,
449,450,451,452,
468,469,470,471,
544,545,546,547,
563,564,565,566,
582,583,584,585,
601,602,603,604
77,
146,147,148,149,
165,166,167,168,
184,185,186,187,
203,204,205,206,
279,280,281,282,
298,299,300,301,
317,318,319,320,
336,337,338,339,
412,413,414,415,
431,432,433,434,
450,451,452,453,
469,470,471,472,
545,546,547,548,
564,565,566,567,
583,584,585,586,
602,603,604,605
78,
147,148,149,150,
166,167,168,169,
185,186,187,188,
204,205,206,207,
280,281,282,283,
299,300,301,302,
318,319,320,321,
337,338,339,340,
413,414,415,416,
432,433,434,435,
451,452,453,454,
470,471,472,473,
546,547,548,549,
565,566,567,568,
584,585,586,587,
603,604,605,606
79,
148,149,150,151,
167,168,169,170,
186,187,188,189,
205,206,207,208,
281,282,283,284,
300,301,302,303,
319,320,321,322,
338,339,340,341,
414,415,416,417,
433,434,435,436,
452,453,454,455,
471,472,473,474,
547,548,549,550,
566,567,568,569,
585,586,587,588,
604,605,606,607
80,
149,150,151,152,
168,169,170,171,
187,188,189,190,
206,207,208,209,
282,283,284,285,
301,302,303,304,
320,321,322,323,
339,340,341,342,
415,416,417,418,
434,435,436,437,
453,454,455,456,
472,473,474,475,
548,549,550,551,
567,568,569,570,
586,587,588,589,
605,606,607,608
81,
153,154,155,156,
172,173,174,175,
191,192,193,194,
210,211,212,213,
286,287,288,289,
305,306,307,308,
324,325,326,327,
343,344,345,346,
419,420,421,422,
438,439,440,441,
457,458,459,460,
476,477,478,479,
552,553,554,555,
571,572,573,574,
590,591,592,593,
609,610,611,612
82,
154,155,156,157,
173,174,175,176,
192,193,194,195,
211,212,213,214,
287,288,289,290,
306,307,308,309,
325,326,327,328,
344,345,346,347,
420,421,422,423,
439,440,441,442,
458,459,460,461,
477,478,479,480,
553,554,555,556,
572,573,574,575,
591,592,593,594,
610,611,612,613
83,
155,156,157,158,
174,175,176,177,
193,194,195,196,
212,213,214,215,
288,289,290,291,
307,308,309,310,
326,327,328,329,
345,346,347,348,
421,422,423,424,
440,441,442,443,
459,460,461,462,
478,479,480,481,
554,555,556,557,
573,574,575,576,
592,593,594,595,
611,612,613,614
84,
156,157,158,159,
175,176,177,178,
194,195,196,197,
213,214,215,216,
289,290,291,292,
308,309,310,311,
327,328,329,330,
346,347,348,349,
422,423,424,425,
441,442,443,444,
460,461,462,463,
479,480,481,482,
555,556,557,558,
574,575,576,577,
593,594,595,596,
612,613,614,615
85,
157,158,159,160,
176,177,178,179,
195,196,197,198,
214,215,216,217,
290,291,292,293,
309,310,311,312,
328,329,330,331,
347,348,349,350,
423,424,425,426,
442,443,444,445,
461,462,463,464,
480,481,482,483,
556,557,558,559,
575,576,577,578,
594,595,596,597,
613,614,615,616
86,
158,159,160,161,
177,178,179,180,
196,197,198,199,
215,216,217,218,
291,292,293,294,
310,311,312,313,
329,330,331,332,
348,349,350,351,
424,425,426,427,
443,444,445,446,
462,463,464,465,
481,482,483,484,
557,558,559,560,
576,577,578,579,
595,596,597,598,
614,615,616,617
87,
159,160,161,162,
178,179,180,181,
197,198,199,200,
216,217,218,219,
292,293,294,295,
311,312,313,314,
330,331,332,333,
349,350,351,352,
425,426,427,428,
444,445,446,447,
463,464,465,466,
482,483,484,485,
558,559,560,561,
577,578,579,580,
596,597,598,599,
615,616,617,618
88,
160,161,162,163,
179,180,181,182,
198,199,200,201,
217,218,219,220,
293,294,295,296,
312,313,314,315,
331,332,333,334,
350,351,352,353,
426,427,428,429,
445,446,447,448,
464,465,466,467,
483,484,485,486,
559,560,561,562,
578,579,580,581,
597,598,599,600,
616,617,618,619
89,
161,162,163,164,
180,181,182,183,
199,200,201,202,
218,219,220,221,
294,295,296,297,
313,314,315,316,
332,333,334,335,
351,352,353,354,
427,428,429,430,
446,447,448,449,
465,466,467,468,
484,485,486,487,
560,561,562,563,
579,580,581,582,
598,599,600,601,
617,618,619,620
90,
162,163,164,165,
181,182,183,184,
200,201,202,203,
219,220,221,222,
295,296,297,298,
314,315,316,317,
333,334,335,336,
352,353,354,355,
428,429,430,431,
447,448,449,450,
466,467,468,469,
485,486,487,488,
561,562,563,564,
580,581,582,583,
599,600,601,602,
618,619,620,621
91,
163,164,165,166,
182,183,184,185,
201,202,203,204,
220,221,222,223,
296,297,298,299,
315,316,317,318,
334,335,336,337,
353,354,355,356,
429,430,431,432,
448,449,450,451,
467,468,469,470,
486,487,488,489,
562,563,564,565,
581,582,583,584,
600,601,602,603,
619,620,621,622
92,
164,165,166,167,
183,184,185,186,
202,203,204,205,
221,222,223,224,
297,298,299,300,
316,317,318,319,
335,336,337,338,
354,355,356,357,
430,431,432,433,
449,450,451,452,
468,469,470,471,
487,488,489,490,
563,564,565,566,
582,583,584,585,
601,602,603,604,
620,621,622,623
93,
165,166,167,168,
184,185,186,187,
203,204,205,206,
222,223,224,225,
298,299,300,301,
317,318,319,320,
336,337,338,339,
355,356,357,358,
431,432,433,434,
450,451,452,453,
469,470,471,472,
488,489,490,491,
564,565,566,567,
583,584,585,586,
602,603,604,605,
621,622,623,624
94,
166,167,168,169,
185,186,187,188,
204,205,206,207,
223,224,225,226,
299,300,301,302,
318,319,320,321,
337,338,339,340,
356,357,358,359,
432,433,434,435,
451,452,453,454,
470,471,472,473,
489,490,491,492,
565,566,567,568,
584,585,586,587,
603,604,605,606,
622,623,624,625
95,
167,168,169,170,
186,187,188,189,
205,206,207,208,
224,225,226,227,
300,301,302,303,
319,320,321,322,
338,339,340,341,
357,358,359,360,
433,434,435,436,
452,453,454,455,
471,472,473,474,
490,491,492,493,
566,567,568,569,
585,586,587,588,
604,605,606,607,
623,624,625,626
96,
168,169,170,171,
187,188,189,190,
206,207,208,209,
225,226,227,228,
301,302,303,304,
320,321,322,323,
339,340,341,342,
358,359,360,361,
434,435,436,437,
453,454,455,456,
472,473,474,475,
491,492,493,494,
567,568,569,570,
586,587,588,589,
605,606,607,608,
624,625,626,627
97,
172,173,174,175,
191,192,193,194,
210,211,212,213,
229,230,231,232,
305,306,307,308,
324,325,326,327,
343,344,345,346,
362,363,364,365,
438,439,440,441,
457,458,459,460,
476,477,478,479,
495,496,497,498,
571,572,573,574,
590,591,592,593,
609,610,611,612,
628,629,630,631
98,
173,174,175,176,
192,193,194,195,
211,212,213,214,
230,231,232,233,
306,307,308,309,
325,326,327,328,
344,345,346,347,
363,364,365,366,
439,440,441,442,
458,459,460,461,
477,478,479,480,
496,497,498,499,
572,573,574,575,
591,592,593,594,
610,611,612,613,
629,630,631,632
99,
174,175,176,177,
193,194,195,196,
212,213,214,215,
231,232,233,234,
307,308,309,310,
326,327,328,329,
345,346,347,348,
364,365,366,367,
440,441,442,443,
459,460,461,462,
478,479,480,481,
497,498,499,500,
573,574,575,576,
592,593,594,595,
611,612,613,614,
630,631,632,633
100,
175,176,177,178,
194,195,196,197,
213,214,215,216,
232,233,234,235,
308,309,310,311,
327,328,329,330,
346,347,348,349,
365,366,367,368,
441,442,443,444,
460,461,462,463,
479,480,481,482,
498,499,500,501,
574,575,576,577,
593,594,595,596,
612,613,614,615,
631,632,633,634
101,
176,177,178,179,
195,196,197,198,
214,215,216,217,
233,234,235,236,
309,310,311,312,
328,329,330,331,
347,348,349,350,
366,367,368,369,
442,443,444,445,
461,462,463,464,
480,481,482,483,
499,500,501,502,
575,576,577,578,
594,595,596,597,
613,614,615,616,
632,633,634,635
102,
177,178,179,180,
196,197,198,199,
215,216,217,218,
234,235,236,237,
310,311,312,313,
329,330,331,332,
348,349,350,351,
367,368,369,370,
443,444,445,446,
462,463,464,465,
481,482,483,484,
500,501,502,503,
576,577,578,579,
595,596,597,598,
614,615,616,617,
633,634,635,636
103,
178,179,180,181,
197,198,199,200,
216,217,218,219,
235,236,237,238,
311,312,313,314,
330,331,332,333,
349,350,351,352,
368,369,370,371,
444,445,446,447,
463,464,465,466,
482,483,484,485,
501,502,503,504,
577,578,579,580,
596,597,598,599,
615,616,617,618,
634,635,636,637
104,
179,180,181,182,
198,199,200,201,
217,218,219,220,
236,237,238,239,
312,313,314,315,
331,332,333,334,
350,351,352,353,
369,370,371,372,
445,446,447,448,
464,465,466,467,
483,484,485,486,
502,503,504,505,
578,579,580,581,
597,598,599,600,
616,617,618,619,
635,636,637,638
105,
180,181,182,183,
199,200,201,202,
218,219,220,221,
237,238,239,240,
313,314,315,316,
332,333,334,335,
351,352,353,354,
370,371,372,373,
446,447,448,449,
465,466,467,468,
484,485,486,487,
503,504,505,506,
579,580,581,582,
598,599,600,601,
617,618,619,620,
636,637,638,639
106,
181,182,183,184,
200,201,202,203,
219,220,221,222,
238,239,240,241,
314,315,316,317,
333,334,335,336,
352,353,354,355,
371,372,373,374,
447,448,449,450,
466,467,468,469,
485,486,487,488,
504,505,506,507,
580,581,582,583,
599,600,601,602,
618,619,620,621,
637,638,639,640
107,
182,183,184,185,
201,202,203,204,
220,221,222,223,
239,240,241,242,
315,316,317,318,
334,335,336,337,
353,354,355,356,
372,373,374,375,
448,449,450,451,
467,468,469,470,
486,487,488,489,
505,506,507,508,
581,582,583,584,
600,601,602,603,
619,620,621,622,
638,639,640,641
108,
183,184,185,186,
202,203,204,205,
221,222,223,224,
240,241,242,243,
316,317,318,319,
335,336,337,338,
354,355,356,357,
373,374,375,376,
449,450,451,452,
468,469,470,471,
487,488,489,490,
506,507,508,509,
582,583,584,585,
601,602,603,604,
620,621,622,623,
639,640,641,642
109,
184,185,186,187,
203,204,205,206,
222,223,224,225,
241,242,243,244,
317,318,319,320,
336,337,338,339,
355,356,357,358,
374,375,376,377,
450,451,452,453,
469,470,471,472,
488,489,490,491,
507,508,509,510,
583,584,585,586,
602,603,604,605,
621,622,623,624,
640,641,642,643
110,
185,186,187,188,
204,205,206,207,
223,224,225,226,
242,243,244,245,
318,319,320,321,
337,338,339,340,
356,357,358,359,
375,376,377,378,
451,452,453,454,
470,471,472,473,
489,490,491,492,
508,509,510,511,
584,585,586,587,
603,604,605,606,
622,623,624,625,
641,642,643,644
111,
186,187,188,189,
205,206,207,208,
224,225,226,227,
243,244,245,246,
319,320,321,322,
338,339,340,341,
357,358,359,360,
376,377,378,379,
452,453,454,455,
471,472,473,474,
490,491,492,493,
509,510,511,512,
585,586,587,588,
604,605,606,607,
623,624,625,626,
642,643,644,645
112,
187,188,189,190,
206,207,208,209,
225,226,227,228,
244,245,246,247,
320,321,322,323,
339,340,341,342,
358,359,360,361,
377,378,379,380,
453,454,455,456,
472,473,474,475,
491,492,493,494,
510,511,512,513,
586,587,588,589,
605,606,607,608,
624,625,626,627,
643,644,645,646
113,
191,192,193,194,
210,211,212,213,
229,230,231,232,
248,249,250,251,
324,325,326,327,
343,344,345,346,
362,363,364,365,
381,382,383,384,
457,458,459,460,
476,477,478,479,
495,496,497,498,
514,515,516,517,
590,591,592,593,
609,610,611,612,
628,629,630,631,
647,648,649,650
114,
192,193,194,195,
211,212,213,214,
230,231,232,233,
249,250,251,252,
325,326,327,328,
344,345,346,347,
363,364,365,366,
382,383,384,385,
458,459,460,461,
477,478,479,480,
496,497,498,499,
515,516,517,518,
591,592,593,594,
610,611,612,613,
629,630,631,632,
648,649,650,651
115,
193,194,195,196,
212,213,214,215,
231,232,233,234,
250,251,252,253,
326,327,328,329,
345,346,347,348,
364,365,366,367,
383,384,385,386,
459,460,461,462,
478,479,480,481,
497,498,499,500,
516,517,518,519,
592,593,594,595,
611,612,613,614,
630,631,632,633,
649,650,651,652
116,
194,195,196,197,
213,214,215,216,
232,233,234,235,
251,252,253,254,
327,328,329,330,
346,347,348,349,
365,366,367,368,
384,385,386,387,
460,461,462,463,
479,480,481,482,
498,499,500,501,
517,518,519,520,
593,594,595,596,
612,613,614,615,
631,632,633,634,
650,651,652,653
117,
195,196,197,198,
214,215,216,217,
233,234,235,236,
252,253,254,255,
328,329,330,331,
347,348,349,350,
366,367,368,369,
385,386,387,388,
461,462,463,464,
480,481,482,483,
499,500,501,502,
518,519,520,521,
594,595,596,597,
613,614,615,616,
632,633,634,635,
651,652,653,654
118,
196,197,198,199,
215,216,217,218,
234,235,236,237,
253,254,255,256,
329,330,331,332,
348,349,350,351,
367,368,369,370,
386,387,388,389,
462,463,464,465,
481,482,483,484,
500,501,502,503,
519,520,521,522,
595,596,597,598,
614,615,616,617,
633,634,635,636,
652,653,654,655
119,
197,198,199,200,
216,217,218,219,
235,236,237,238,
254,255,256,257,
330,331,332,333,
349,350,351,352,
368,369,370,371,
387,388,389,390,
463,464,465,466,
482,483,484,485,
501,502,503,504,
520,521,522,523,
596,597,598,599,
615,616,617,618,
634,635,636,637,
653,654,655,656
120,
198,199,200,201,
217,218,219,220,
236,237,238,239,
255,256,257,258,
331,332,333,334,
350,351,352,353,
369,370,371,372,
388,389,390,391,
464,465,466,467,
483,484,485,486,
502,503,504,505,
521,522,523,524,
597,598,599,600,
616,617,618,619,
635,636,637,638,
654,655,656,657
121,
199,200,201,202,
218,219,220,221,
237,238,239,240,
256,257,258,259,
332,333,334,335,
351,352,353,354,
370,371,372,373,
389,390,391,392,
465,466,467,468,
484,485,486,487,
503,504,505,506,
522,523,524,525,
598,599,600,601,
617,618,619,620,
636,637,638,639,
655,656,657,658
122,
200,201,202,203,
219,220,221,222,
238,239,240,241,
257,258,259,260,
333,334,335,336,
352,353,354,355,
371,372,373,374,
390,391,392,393,
466,467,468,469,
485,486,487,488,
504,505,506,507,
523,524,525,526,
599,600,601,602,
618,619,620,621,
637,638,639,640,
656,657,658,659
123,
201,202,203,204,
220,221,222,223,
239,240,241,242,
258,259,260,261,
334,335,336,337,
353,354,355,356,
372,373,374,375,
391,392,393,394,
467,468,469,470,
486,487,488,489,
505,506,507,508,
524,525,526,527,
600,601,602,603,
619,620,621,622,
638,639,640,641,
657,658,659,660
124,
202,203,204,205,
221,222,223,224,
240,241,242,243,
259,260,261,262,
335,336,337,338,
354,355,356,357,
373,374,375,376,
392,393,394,395,
468,469,470,471,
487,488,489,490,
506,507,508,509,
525,526,527,528,
601,602,603,604,
620,621,622,623,
639,640,641,642,
658,659,660,661
125,
203,204,205,206,
222,223,224,225,
241,242,243,244,
260,261,262,263,
336,337,338,339,
355,356,357,358,
374,375,376,377,
393,394,395,396,
469,470,471,472,
488,489,490,491,
507,508,509,510,
526,527,528,529,
602,603,604,605,
621,622,623,624,
640,641,642,643,
659,660,661,662
126,
204,205,206,207,
223,224,225,226,
242,243,244,245,
261,262,263,264,
337,338,339,340,
356,357,358,359,
375,376,377,378,
394,395,396,397,
470,471,472,473,
489,490,491,492,
508,509,510,511,
527,528,529,530,
603,604,605,606,
622,623,624,625,
641,642,643,644,
660,661,662,663
127,
205,206,207,208,
224,225,226,227,
243,244,245,246,
262,263,264,265,
338,339,340,341,
357,358,359,360,
376,377,378,379,
395,396,397,398,
471,472,473,474,
490,491,492,493,
509,510,511,512,
528,529,530,531,
604,605,606,607,
623,624,625,626,
642,643,644,645,
661,662,663,664
128,
206,207,208,209,
225,226,227,228,
244,245,246,247,
263,264,265,266,
339,340,341,342,
358,359,360,361,
377,378,379,380,
396,397,398,399,
472,473,474,475,
491,492,493,494,
510,511,512,513,
529,530,531,532,
605,606,607,608,
624,625,626,627,
643,644,645,646,
662,663,664,665
129,
267,268,269,270,
286,287,288,289,
305,306,307,308,
324,325,326,327,
400,401,402,403,
419,420,421,422,
438,439,440,441,
457,458,459,460,
533,534,535,536,
552,553,554,555,
571,572,573,574,
590,591,592,593,
666,667,668,669,
685,686,687,688,
704,705,706,707,
723,724,725,726
130,
268,269,270,271,
287,288,289,290,
306,307,308,309,
325,326,327,328,
401,402,403,404,
420,421,422,423,
439,440,441,442,
458,459,460,461,
534,535,536,537,
553,554,555,556,
572,573,574,575,
591,592,593,594,
667,668,669,670,
686,687,688,689,
705,706,707,708,
724,725,726,727
131,
269,270,271,272,
288,289,290,291,
307,308,309,310,
326,327,328,329,
402,403,404,405,
421,422,423,424,
440,441,442,443,
459,460,461,462,
535,536,537,538,
554,555,556,557,
573,574,575,576,
592,593,594,595,
668,669,670,671,
687,688,689,690,
706,707,708,709,
725,726,727,728
132,
270,271,272,273,
289,290,291,292,
308,309,310,311,
327,328,329,330,
403,404,405,406,
422,423,424,425,
441,442,443,444,
460,461,462,463,
536,537,538,539,
555,556,557,558,
574,575,576,577,
593,594,595,596,
669,670,671,672,
688,689,690,691,
707,708,709,710,
726,727,728,729
133,
271,272,273,274,
290,291,292,293,
309,310,311,312,
328,329,330,331,
404,405,406,407,
423,424,425,426,
442,443,444,445,
461,462,463,464,
537,538,539,540,
556,557,558,559,
575,576,577,578,
594,595,596,597,
670,671,672,673,
689,690,691,692,
708,709,710,711,
727,728,729,730
134,
272,273,274,275,
291,292,293,294,
310,311,312,313,
329,330,331,332,
405,406,407,408,
424,425,426,427,
443,444,445,446,
462,463,464,465,
538,539,540,541,
557,558,559,560,
576,577,578,579,
595,596,597,598,
671,672,673,674,
690,691,692,693,
709,710,711,712,
728,729,730,731
135,
273,274,275,276,
292,293,294,295,
311,312,313,314,
330,331,332,333,
406,407,408,409,
425,426,427,428,
444,445,446,447,
463,464,465,466,
539,540,541,542,
558,559,560,561,
577,578,579,580,
596,597,598,599,
672,673,674,675,
691,692,693,694,
710,711,712,713,
729,730,731,732
136,
274,275,276,277,
293,294,295,296,
312,313,314,315,
331,332,333,334,
407,408,409,410,
426,427,428,429,
445,446,447,448,
464,465,466,467,
540,541,542,543,
559,560,561,562,
578,579,580,581,
597,598,599,600,
673,674,675,676,
692,693,694,695,
711,712,713,714,
730,731,732,733
137,
275,276,277,278,
294,295,296,297,
313,314,315,316,
332,333,334,335,
408,409,410,411,
427,428,429,430,
446,447,448,449,
465,466,467,468,
541,542,543,544,
560,561,562,563,
579,580,581,582,
598,599,600,601,
674,675,676,677,
693,694,695,696,
712,713,714,715,
731,732,733,734
138,
276,277,278,279,
295,296,297,298,
314,315,316,317,
333,334,335,336,
409,410,411,412,
428,429,430,431,
447,448,449,450,
466,467,468,469,
542,543,544,545,
561,562,563,564,
580,581,582,583,
599,600,601,602,
675,676,677,678,
694,695,696,697,
713,714,715,716,
732,733,734,735
139,
277,278,279,280,
296,297,298,299,
315,316,317,318,
334,335,336,337,
410,411,412,413,
429,430,431,432,
448,449,450,451,
467,468,469,470,
543,544,545,546,
562,563,564,565,
581,582,583,584,
600,601,602,603,
676,677,678,679,
695,696,697,698,
714,715,716,717,
733,734,735,736
140,
278,279,280,281,
297,298,299,300,
316,317,318,319,
335,336,337,338,
411,412,413,414,
430,431,432,433,
449,450,451,452,
468,469,470,471,
544,545,546,547,
563,564,565,566,
582,583,584,585,
601,602,603,604,
677,678,679,680,
696,697,698,699,
715,716,717,718,
734,735,736,737
141,
279,280,281,282,
298,299,300,301,
317,318,319,320,
336,337,338,339,
412,413,414,415,
431,432,433,434,
450,451,452,453,
469,470,471,472,
545,546,547,548,
564,565,566,567,
583,584,585,586,
602,603,604,605,
678,679,680,681,
697,698,699,700,
716,717,718,719,
735,736,737,738
142,
280,281,282,283,
299,300,301,302,
318,319,320,321,
337,338,339,340,
413,414,415,416,
432,433,434,435,
451,452,453,454,
470,471,472,473,
546,547,548,549,
565,566,567,568,
584,585,586,587,
603,604,605,606,
679,680,681,682,
698,699,700,701,
717,718,719,720,
736,737,738,739
143,
281,282,283,284,
300,301,302,303,
319,320,321,322,
338,339,340,341,
414,415,416,417,
433,434,435,436,
452,453,454,455,
471,472,473,474,
547,548,549,550,
566,567,568,569,
585,586,587,588,
604,605,606,607,
680,681,682,683,
699,700,701,702,
718,719,720,721,
737,738,739,740
144,
282,283,284,285,
301,302,303,304,
320,321,322,323,
339,340,341,342,
415,416,417,418,
434,435,436,437,
453,454,455,456,
472,473,474,475,
548,549,550,551,
567,568,569,570,
586,587,588,589,
605,606,607,608,
681,682,683,684,
700,701,702,703,
719,720,721,722,
738,739,740,741
145,
286,287,288,289,
305,306,307,308,
324,325,326,327,
343,344,345,346,
419,420,421,422,
438,439,440,441,
457,458,459,460,
476,477,478,479,
552,553,554,555,
571,572,573,574,
590,591,592,593,
609,610,611,612,
685,686,687,688,
704,705,706,707,
723,724,725,726,
742,743,744,745
146,
287,288,289,290,
306,307,308,309,
325,326,327,328,
344,345,346,347,
420,421,422,423,
439,440,441,442,
458,459,460,461,
477,478,479,480,
553,554,555,556,
572,573,574,575,
591,592,593,594,
610,611,612,613,
686,687,688,689,
705,706,707,708,
724,725,726,727,
743,744,745,746
147,
288,289,290,291,
307,308,309,310,
326,327,328,329,
345,346,347,348,
421,422,423,424,
440,441,442,443,
459,460,461,462,
478,479,480,481,
554,555,556,557,
573,574,575,576,
592,593,594,595,
611,612,613,614,
687,688,689,690,
706,707,708,709,
725,726,727,728,
744,745,746,747
148,
289,290,291,292,
308,309,310,311,
327,328,329,330,
346,347,348,349,
422,423,424,425,
441,442,443,444,
460,461,462,463,
479,480,481,482,
555,556,557,558,
574,575,576,577,
593,594,595,596,
612,613,614,615,
688,689,690,691,
707,708,709,710,
726,727,728,729,
745,746,747,748
149,
290,291,292,293,
309,310,311,312,
328,329,330,331,
347,348,349,350,
423,424,425,426,
442,443,444,445,
461,462,463,464,
480,481,482,483,
556,557,558,559,
575,576,577,578,
594,595,596,597,
613,614,615,616,
689,690,691,692,
708,709,710,711,
727,728,729,730,
746,747,748,749
150,
291,292,293,294,
310,311,312,313,
329,330,331,332,
348,349,350,351,
424,425,426,427,
443,444,445,446,
462,463,464,465,
481,482,483,484,
557,558,559,560,
576,577,578,579,
595,596,597,598,
614,615,616,617,
690,691,692,693,
709,710,711,712,
728,729,730,731,
747,748,749,750
151,
292,293,294,295,
311,312,313,314,
330,331,332,333,
349,350,351,352,
425,426,427,428,
444,445,446,447,
463,464,465,466,
482,483,484,485,
558,559,560,561,
577,578,579,580,
596,597,598,599,
615,616,617,618,
691,692,693,694,
710,711,712,713,
729,730,731,732,
748,749,750,751
152,
293,294,295,296,
312,313,314,315,
331,332,333,334,
350,351,352,353,
426,427,428,429,
445,446,447,448,
464,465,466,467,
483,484,485,486,
559,560,561,562,
578,579,580,581,
597,598,599,600,
616,617,618,619,
692,693,694,695,
711,712,713,714,
730,731,732,733,
749,750,751,752
153,
294,295,296,297,
313,314,315,316,
332,333,334,335,
351,352,353,354,
427,428,429,430,
446,447,448,449,
465,466,467,468,
484,485,486,487,
560,561,562,563,
579,580,581,582,
598,599,600,601,
617,618,619,620,
693,694,695,696,
712,713,714,715,
731,732,733,734,
750,751,752,753
154,
295,296,297,298,
314,315,316,317,
333,334,335,336,
352,353,354,355,
428,429,430,431,
447,448,449,450,
466,467,468,469,
485,486,487,488,
561,562,563,564,
580,581,582,583,
599,600,601,602,
618,619,620,621,
694,695,696,697,
713,714,715,716,
732,733,734,735,
751,752,753,754
155,
296,297,298,299,
315,316,317,318,
334,335,336,337,
353,354,355,356,
429,430,431,432,
448,449,450,451,
467,468,469,470,
486,487,488,489,
562,563,564,565,
581,582,583,584,
600,601,602,603,
619,620,621,622,
695,696,697,698,
714,715,716,717,
733,734,735,736,
752,753,754,755
156,
297,298,299,300,
316,317,318,319,
335,336,337,338,
354,355,356,357,
430,431,432,433,
449,450,451,452,
468,469,470,471,
487,488,489,490,
563,564,565,566,
582,583,584,585,
601,602,603,604,
620,621,622,623,
696,697,698,699,
715,716,717,718,
734,735,736,737,
753,754,755,756
157,
298,299,300,301,
317,318,319,320,
336,337,338,339,
355,356,357,358,
431,432,433,434,
450,451,452,453,
469,470,471,472,
488,489,490,491,
564,565,566,567,
583,584,585,586,
602,603,604,605,
621,622,623,624,
697,698,699,700,
716,717,718,719,
735,736,737,738,
754,755,756,757
158,
299,300,301,302,
318,319,320,321,
337,338,339,340,
356,357,358,359,
432,433,434,435,
451,452,453,454,
470,471,472,473,
489,490,491,492,
565,566,567,568,
584,585,586,587,
603,604,605,606,
622,623,624,625,
698,699,700,701,
717,718,719,720,
736,737,738,739,
755,756,757,758
159,
300,301,302,303,
319,320,321,322,
338,339,340,341,
357,358,359,360,
433,434,435,436,
452,453,454,455,
471,472,473,474,
490,491,492,493,
566,567,568,569,
585,586,587,588,
604,605,606,607,
623,624,625,626,
699,700,701,702,
718,719,720,721,
737,738,739,740,
756,757,758,759
160,
301,302,303,304,
320,321,322,323,
339,340,341,342,
358,359,360,361,
434,435,436,437,
453,454,455,456,
472,473,474,475,
491,492,493,494,
567,568,569,570,
586,587,588,589,
605,606,607,608,
624,625,626,627,
700,701,702,703,
719,720,721,722,
738,739,740,741,
757,758,759,760
161,
305,306,307,308,
324,325,326,327,
343,344,345,346,
362,363,364,365,
438,439,440,441,
457,458,459,460,
476,477,478,479,
495,496,497,498,
571,572,573,574,
590,591,592,593,
609,610,611,612,
628,629,630,631,
704,705,706,707,
723,724,725,726,
742,743,744,745,
761,762,763,764
162,
306,307,308,309,
325,326,327,328,
344,345,346,347,
363,364,365,366,
439,440,441,442,
458,459,460,461,
477,478,479,480,
496,497,498,499,
572,573,574,575,
591,592,593,594,
610,611,612,613,
629,630,631,632,
705,706,707,708,
724,725,726,727,
743,744,745,746,
762,763,764,765
163,
307,308,309,310,
326,327,328,329,
345,346,347,348,
364,365,366,367,
440,441,442,443,
459,460,461,462,
478,479,480,481,
497,498,499,500,
573,574,575,576,
592,593,594,595,
611,612,613,614,
630,631,632,633,
706,707,708,709,
725,726,727,728,
744,745,746,747,
763,764,765,766
164,
308,309,310,311,
327,328,329,330,
346,347,348,349,
365,366,367,368,
441,442,443,444,
460,461,462,463,
479,480,481,482,
498,499,500,501,
574,575,576,577,
593,594,595,596,
612,613,614,615,
631,632,633,634,
707,708,709,710,
726,727,728,729,
745,746,747,748,
764,765,766,767
165,
309,310,311,312,
328,329,330,331,
347,348,349,350,
366,367,368,369,
442,443,444,445,
461,462,463,464,
480,481,482,483,
499,500,501,502,
575,576,577,578,
594,595,596,597,
613,614,615,616,
632,633,634,635,
708,709,710,711,
727,728,729,730,
746,747,748,749,
765,766,767,768
166,
310,311,312,313,
329,330,331,332,
348,349,350,351,
367,368,369,370,
443,444,445,446,
462,463,464,465,
481,482,483,484,
500,501,502,503,
576,577,578,579,
595,596,597,598,
614,615,616,617,
633,634,635,636,
709,710,711,712,
728,729,730,731,
747,748,749,750,
766,767,768,769
167,
311,312,313,314,
330,331,332,333,
349,350,351,352,
368,369,370,371,
444,445,446,447,
463,464,465,466,
482,483,484,485,
501,502,503,504,
577,578,579,580,
596,597,598,599,
615,616,617,618,
634,635,636,637,
710,711,712,713,
729,730,731,732,
748,749,750,751,
767,768,769,770
168,
312,313,314,315,
331,332,333,334,
350,351,352,353,
369,370,371,372,
445,446,447,448,
464,465,466,467,
483,484,485,486,
502,503,504,505,
578,579,580,581,
597,598,599,600,
616,617,618,619,
635,636,637,638,
711,712,713,714,
730,731,732,733,
749,750,751,752,
768,769,770,771
169,
313,314,315,316,
332,333,334,335,
351,352,353,354,
370,371,372,373,
446,447,448,449,
465,466,467,468,
484,485,486,487,
503,504,505,506,
579,580,581,582,
598,599,600,601,
617,618,619,620,
636,637,638,639,
712,713,714,715,
731,732,733,734,
750,751,752,753,
769,770,771,772
170,
314,315,316,317,
333,334,335,336,
352,353,354,355,
371,372,373,374,
447,448,449,450,
466,467,468,469,
485,486,487,488,
504,505,506,507,
580,581,582,583,
599,600,601,602,
618,619,620,621,
637,638,639,640,
713,714,715,716,
732,733,734,735,
751,752,753,754,
770,771,772,773
171,
315,316,317,318,
334,335,336,337,
353,354,355,356,
372,373,374,375,
448,449,450,451,
467,468,469,470,
486,487,488,489,
505,506,507,508,
581,582,583,584,
600,601,602,603,
619,620,621,622,
638,639,640,641,
714,715,716,717,
733,734,735,736,
752,753,754,755,
771,772,773,774
172,
316,317,318,319,
335,336,337,338,
354,355,356,357,
373,374,375,376,
449,450,451,452,
468,469,470,471,
487,488,489,490,
506,507,508,509,
582,583,584,585,
601,602,603,604,
620,621,622,623,
639,640,641,642,
715,716,717,718,
734,735,736,737,
753,754,755,756,
772,773,774,775
173,
317,318,319,320,
336,337,338,339,
355,356,357,358,
374,375,376,377,
450,451,452,453,
469,470,471,472,
488,489,490,491,
507,508,509,510,
583,584,585,586,
602,603,604,605,
621,622,623,624,
640,641,642,643,
716,717,718,719,
735,736,737,738,
754,755,756,757,
773,774,775,776
174,
318,319,320,321,
337,338,339,340,
356,357,358,359,
375,376,377,378,
451,452,453,454,
470,471,472,473,
489,490,491,492,
508,509,510,511,
584,585,586,587,
603,604,605,606,
622,623,624,625,
641,642,643,644,
717,718,719,720,
736,737,738,739,
755,756,757,758,
774,775,776,777
175,
319,320,321,322,
338,339,340,341,
357,358,359,360,
376,377,378,379,
452,453,454,455,
471,472,473,474,
490,491,492,493,
509,510,511,512,
585,586,587,588,
604,605,606,607,
623,624,625,626,
642,643,644,645,
718,719,720,721,
737,738,739,740,
756,757,758,759,
775,776,777,778
176,
320,321,322,323,
339,340,341,342,
358,359,360,361,
377,378,379,380,
453,454,455,456,
472,473,474,475,
491,492,493,494,
510,511,512,513,
586,587,588,589,
605,606,607,608,
624,625,626,627,
643,644,645,646,
719,720,721,722,
738,739,740,741,
757,758,759,760,
776,777,778,779
177,
324,325,326,327,
343,344,345,346,
362,363,364,365,
381,382,383,384,
457,458,459,460,
476,477,478,479,
495,496,497,498,
514,515,516,517,
590,591,592,593,
609,610,611,612,
628,629,630,631,
647,648,649,650,
723,724,725,726,
742,743,744,745,
761,762,763,764,
780,781,782,783
178,
325,326,327,328,
344,345,346,347,
363,364,365,366,
382,383,384,385,
458,459,460,461,
477,478,479,480,
496,497,498,499,
515,516,517,518,
591,592,593,594,
610,611,612,613,
629,630,631,632,
648,649,650,651,
724,725,726,727,
743,744,745,746,
762,763,764,765,
781,782,783,784
179,
326,327,328,329,
345,346,347,348,
364,365,366,367,
383,384,385,386,
459,460,461,462,
478,479,480,481,
497,498,499,500,
516,517,518,519,
592,593,594,595,
611,612,613,614,
630,631,632,633,
649,650,651,652,
725,726,727,728,
744,745,746,747,
763,764,765,766,
782,783,784,785
180,
327,328,329,330,
346,347,348,349,
365,366,367,368,
384,385,386,387,
460,461,462,463,
479,480,481,482,
498,499,500,501,
517,518,519,520,
593,594,595,596,
612,613,614,615,
631,632,633,634,
650,651,652,653,
726,727,728,729,
745,746,747,748,
764,765,766,767,
783,784,785,786
181,
328,329,330,331,
347,348,349,350,
366,367,368,369,
385,386,387,388,
461,462,463,464,
480,481,482,483,
499,500,501,502,
518,519,520,521,
594,595,596,597,
613,614,615,616,
632,633,634,635,
651,652,653,654,
727,728,729,730,
746,747,748,749,
765,766,767,768,
784,785,786,787
182,
329,330,331,332,
348,349,350,351,
367,368,369,370,
386,387,388,389,
462,463,464,465,
481,482,483,484,
500,501,502,503,
519,520,521,522,
595,596,597,598,
614,615,616,617,
633,634,635,636,
652,653,654,655,
728,729,730,731,
747,748,749,750,
766,767,768,769,
785,786,787,788
183,
330,331,332,333,
349,350,351,352,
368,369,370,371,
387,388,389,390,
463,464,465,466,
482,483,484,485,
501,502,503,504,
520,521,522,523,
596,597,598,599,
615,616,617,618,
634,635,636,637,
653,654,655,656,
729,730,731,732,
748,749,750,751,
767,768,769,770,
786,787,788,789
184,
331,332,333,334,
350,351,352,353,
369,370,371,372,
388,389,390,391,
464,465,466,467,
483,484,485,486,
502,503,504,505,
521,522,523,524,
597,598,599,600,
616,617,618,619,
635,636,637,638,
654,655,656,657,
730,731,732,733,
749,750,751,752,
768,769,770,771,
787,788,789,790
185,
332,333,334,335,
351,352,353,354,
370,371,372,373,
389,390,391,392,
465,466,467,468,
484,485,486,487,
503,504,505,506,
522,523,524,525,
598,599,600,601,
617,618,619,620,
636,637,638,639,
655,656,657,658,
731,732,733,734,
750,751,752,753,
769,770,771,772,
788,789,790,791
186,
333,334,335,336,
352,353,354,355,
371,372,373,374,
390,391,392,393,
466,467,468,469,
485,486,487,488,
504,505,506,507,
523,524,525,526,
599,600,601,602,
618,619,620,621,
637,638,639,640,
656,657,658,659,
732,733,734,735,
751,752,753,754,
770,771,772,773,
789,790,791,792
187,
334,335,336,337,
353,354,355,356,
372,373,374,375,
391,392,393,394,
467,468,469,470,
486,487,488,489,
505,506,507,508,
524,525,526,527,
600,601,602,603,
619,620,621,622,
638,639,640,641,
657,658,659,660,
733,734,735,736,
752,753,754,755,
771,772,773,774,
790,791,792,793
188,
335,336,337,338,
354,355,356,357,
373,374,375,376,
392,393,394,395,
468,469,470,471,
487,488,489,490,
506,507,508,509,
525,526,527,528,
601,602,603,604,
620,621,622,623,
639,640,641,642,
658,659,660,661,
734,735,736,737,
753,754,755,756,
772,773,774,775,
791,792,793,794
189,
336,337,338,339,
355,356,357,358,
374,375,376,377,
393,394,395,396,
469,470,471,472,
488,489,490,491,
507,508,509,510,
526,527,528,529,
602,603,604,605,
621,622,623,624,
640,641,642,643,
659,660,661,662,
735,736,737,738,
754,755,756,757,
773,774,775,776,
792,793,794,795
190,
337,338,339,340,
356,357,358,359,
375,376,377,378,
394,395,396,397,
470,471,472,473,
489,490,491,492,
508,509,510,511,
527,528,529,530,
603,604,605,606,
622,623,624,625,
641,642,643,644,
660,661,662,663,
736,737,738,739,
755,756,757,758,
774,775,776,777,
793,794,795,796
191,
338,339,340,341,
357,358,359,360,
376,377,378,379,
395,396,397,398,
471,472,473,474,
490,491,492,493,
509,510,511,512,
528,529,530,531,
604,605,606,607,
623,624,625,626,
642,643,644,645,
661,662,663,664,
737,738,739,740,
756,757,758,759,
775,776,777,778,
794,795,796,797
192,
339,340,341,342,
358,359,360,361,
377,378,379,380,
396,397,398,399,
472,473,474,475,
491,492,493,494,
510,511,512,513,
529,530,531,532,
605,606,607,608,
624,625,626,627,
643,644,645,646,
662,663,664,665,
738,739,740,741,
757,758,759,760,
776,777,778,779,
795,796,797,798
193,
400,401,402,403,
419,420,421,422,
438,439,440,441,
457,458,459,460,
533,534,535,536,
552,553,554,555,
571,572,573,574,
590,591,592,593,
666,667,668,669,
685,686,687,688,
704,705,706,707,
723,724,725,726,
799,800,801,802,
818,819,820,821,
837,838,839,840,
856,857,858,859
194,
401,402,403,404,
420,421,422,423,
439,440,441,442,
458,459,460,461,
534,535,536,537,
553,554,555,556,
572,573,574,575,
591,592,593,594,
667,668,669,670,
686,687,688,689,
705,706,707,708,
724,725,726,727,
800,801,802,803,
819,820,821,822,
838,839,840,841,
857,858,859,860
195,
402,403,404,405,
421,422,423,424,
440,441,442,443,
459,460,461,462,
535,536,537,538,
554,555,556,557,
573,574,575,576,
592,593,594,595,
668,669,670,671,
687,688,689,690,
706,707,708,709,
725,726,727,728,
801,802,803,804,
820,821,822,823,
839,840,841,842,
858,859,860,861
196,
403,404,405,406,
422,423,424,425,
441,442,443,444,
460,461,462,463,
536,537,538,539,
555,556,557,558,
574,575,576,577,
593,594,595,596,
669,670,671,672,
688,689,690,691,
707,708,709,710,
726,727,728,729,
802,803,804,805,
821,822,823,824,
840,841,842,843,
859,860,861,862
197,
404,405,406,407,
423,424,425,426,
442,443,444,445,
461,462,463,464,
537,538,539,540,
556,557,558,559,
575,576,577,578,
594,595,596,597,
670,671,672,673,
689,690,691,692,
708,709,710,711,
727,728,729,730,
803,804,805,806,
822,823,824,825,
841,842,843,844,
860,861,862,863
198,
405,406,407,408,
424,425,426,427,
443,444,445,446,
462,463,464,465,
538,539,540,541,
557,558,559,560,
576,577,578,579,
595,596,597,598,
671,672,673,674,
690,691,692,693,
709,710,711,712,
728,729,730,731,
804,805,806,807,
823,824,825,826,
842,843,844,845,
861,862,863,864
199,
406,407,408,409,
425,426,427,428,
444,445,446,447,
463,464,465,466,
539,540,541,542,
558,559,560,561,
577,578,579,580,
596,597,598,599,
672,673,674,675,
691,692,693,694,
710,711,712,713,
729,730,731,732,
805,806,807,808,
824,825,826,827,
843,844,845,846,
862,863,864,865
200,
407,408,409,410,
426,427,428,429,
445,446,447,448,
464,465,466,467,
540,541,542,543,
559,560,561,562,
578,579,580,581,
597,598,599,600,
673,674,675,676,
692,693,694,695,
711,712,713,714,
730,731,732,733,
806,807,808,809,
825,826,827,828,
844,845,846,847,
863,864,865,866
201,
408,409,410,411,
427,428,429,430,
446,447,448,449,
465,466,467,468,
541,542,543,544,
560,561,562,563,
579,580,581,582,
598,599,600,601,
674,675,676,677,
693,694,695,696,
712,713,714,715,
731,732,733,734,
807,808,809,810,
826,827,828,829,
845,846,847,848,
864,865,866,867
202,
409,410,411,412,
428,429,430,431,
447,448,449,450,
466,467,468,469,
542,543,544,545,
561,562,563,564,
580,581,582,583,
599,600,601,602,
675,676,677,678,
694,695,696,697,
713,714,715,716,
732,733,734,735,
808,809,810,811,
827,828,829,830,
846,847,848,849,
865,866,867,868
203,
410,411,412,413,
429,430,431,432,
448,449,450,451,
467,468,469,470,
543,544,545,546,
562,563,564,565,
581,582,583,584,
600,601,602,603,
676,677,678,679,
695,696,697,698,
714,715,716,717,
733,734,735,736,
809,810,811,812,
828,829,830,831,
847,848,849,850,
866,867,868,869
204,
411,412,413,414,
430,431,432,433,
449,450,451,452,
468,469,470,471,
544,545,546,547,
563,564,565,566,
582,583,584,585,
601,602,603,604,
677,678,679,680,
696,697,698,699,
715,716,717,718,
734,735,736,737,
810,811,812,813,
829,830,831,832,
848,849,850,851,
867,868,869,870
205,
412,413,414,415,
431,432,433,434,
450,451,452,453,
469,470,471,472,
545,546,547,548,
564,565,566,567,
583,584,585,586,
602,603,604,605,
678,679,680,681,
697,698,699,700,
716,717,718,719,
735,736,737,738,
811,812,813,814,
830,831,832,833,
849,850,851,852,
868,869,870,871
206,
413,414,415,416,
432,433,434,435,
451,452,453,454,
470,471,472,473,
546,547,548,549,
565,566,567,568,
584,585,586,587,
603,604,605,606,
679,680,681,682,
698,699,700,701,
717,718,719,720,
736,737,738,739,
812,813,814,815,
831,832,833,834,
850,851,852,853,
869,870,871,872
207,
414,415,416,417,
433,434,435,436,
452,453,454,455,
471,472,473,474,
547,548,549,550,
566,567,568,569,
585,586,587,588,
604,605,606,607,
680,681,682,683,
699,700,701,702,
718,719,720,721,
737,738,739,740,
813,814,815,816,
832,833,834,835,
851,852,853,854,
870,871,872,873
208,
415,416,417,418,
434,435,436,437,
453,454,455,456,
472,473,474,475,
548,549,550,551,
567,568,569,570,
586,587,588,589,
605,606,607,608,
681,682,683,684,
700,701,702,703,
719,720,721,722,
738,739,740,741,
814,815,816,817,
833,834,835,836,
852,853,854,855,
871,872,873,874
209,
419,420,421,422,
438,439,440,441,
457,458,459,460,
476,477,478,479,
552,553,554,555,
571,572,573,574,
590,591,592,593,
609,610,611,612,
685,686,687,688,
704,705,706,707,
723,724,725,726,
742,743,744,745,
818,819,820,821,
837,838,839,840,
856,857,858,859,
875,876,877,878
210,
420,421,422,423,
439,440,441,442,
458,459,460,461,
477,478,479,480,
553,554,555,556,
572,573,574,575,
591,592,593,594,
610,611,612,613,
686,687,688,689,
705,706,707,708,
724,725,726,727,
743,744,745,746,
819,820,821,822,
838,839,840,841,
857,858,859,860,
876,877,878,879
211,
421,422,423,424,
440,441,442,443,
459,460,461,462,
478,479,480,481,
554,555,556,557,
573,574,575,576,
592,593,594,595,
611,612,613,614,
687,688,689,690,
706,707,708,709,
725,726,727,728,
744,745,746,747,
820,821,822,823,
839,840,841,842,
858,859,860,861,
877,878,879,880
212,
422,423,424,425,
441,442,443,444,
460,461,462,463,
479,480,481,482,
555,556,557,558,
574,575,576,577,
593,594,595,596,
612,613,614,615,
688,689,690,691,
707,708,709,710,
726,727,728,729,
745,746,747,748,
821,822,823,824,
840,841,842,843,
859,860,861,862,
878,879,880,881
213,
423,424,425,426,
442,443,444,445,
461,462,463,464,
480,481,482,483,
556,557,558,559,
575,576,577,578,
594,595,596,597,
613,614,615,616,
689,690,691,692,
708,709,710,711,
727,728,729,730,
746,747,748,749,
822,823,824,825,
841,842,843,844,
860,861,862,863,
879,880,881,882
214,
424,425,426,427,
443,444,445,446,
462,463,464,465,
481,482,483,484,
557,558,559,560,
576,577,578,579,
595,596,597,598,
614,615,616,617,
690,691,692,693,
709,710,711,712,
728,729,730,731,
747,748,749,750,
823,824,825,826,
842,843,844,845,
861,862,863,864,
880,881,882,883
215,
425,426,427,428,
444,445,446,447,
463,464,465,466,
482,483,484,485,
558,559,560,561,
577,578,579,580,
596,597,598,599,
615,616,617,618,
691,692,693,694,
710,711,712,713,
729,730,731,732,
748,749,750,751,
824,825,826,827,
843,844,845,846,
862,863,864,865,
881,882,883,884
216,
426,427,428,429,
445,446,447,448,
464,465,466,467,
483,484,485,486,
559,560,561,562,
578,579,580,581,
597,598,599,600,
616,617,618,619,
692,693,694,695,
711,712,713,714,
730,731,732,733,
749,750,751,752,
825,826,827,828,
844,845,846,847,
863,864,865,866,
882,883,884,885
217,
427,428,429,430,
446,447,448,449,
465,466,467,468,
484,485,486,487,
560,561,562,563,
579,580,581,582,
598,599,600,601,
617,618,619,620,
693,694,695,696,
712,713,714,715,
731,732,733,734,
750,751,752,753,
826,827,828,829,
845,846,847,848,
864,865,866,867,
883,884,885,886
218,
428,429,430,431,
447,448,449,450,
466,467,468,469,
485,486,487,488,
561,562,563,564,
580,581,582,583,
599,600,601,602,
618,619,620,621,
694,695,696,697,
713,714,715,716,
732,733,734,735,
751,752,753,754,
827,828,829,830,
846,847,848,849,
865,866,867,868,
884,885,886,887
219,
429,430,431,432,
448,449,450,451,
467,468,469,470,
486,487,488,489,
562,563,564,565,
581,582,583,584,
600,601,602,603,
619,620,621,622,
695,696,697,698,
714,715,716,717,
733,734,735,736,
752,753,754,755,
828,829,830,831,
847,848,849,850,
866,867,868,869,
885,886,887,888
220,
430,431,432,433,
449,450,451,452,
468,469,470,471,
487,488,489,490,
563,564,565,566,
582,583,584,585,
601,602,603,604,
620,621,622,623,
696,697,698,699,
715,716,717,718,
734,735,736,737,
753,754,755,756,
829,830,831,832,
848,849,850,851,
867,868,869,870,
886,887,888,889
221,
431,432,433,434,
450,451,452,453,
469,470,471,472,
488,489,490,491,
564,565,566,567,
583,584,585,586,
602,603,604,605,
621,622,623,624,
697,698,699,700,
716,717,718,719,
735,736,737,738,
754,755,756,757,
830,831,832,833,
849,850,851,852,
868,869,870,871,
887,888,889,890
222,
432,433,434,435,
451,452,453,454,
470,471,472,473,
489,490,491,492,
565,566,567,568,
584,585,586,587,
603,604,605,606,
622,623,624,625,
698,699,700,701,
717,718,719,720,
736,737,738,739,
755,756,757,758,
831,832,833,834,
850,851,852,853,
869,870,871,872,
888,889,890,891
223,
433,434,435,436,
452,453,454,455,
471,472,473,474,
490,491,492,493,
566,567,568,569,
585,586,587,588,
604,605,606,607,
623,624,625,626,
699,700,701,702,
718,719,720,721,
737,738,739,740,
756,757,758,759,
832,833,834,835,
851,852,853,854,
870,871,872,873,
889,890,891,892
224,
434,435,436,437,
453,454,455,456,
472,473,474,475,
491,492,493,494,
567,568,569,570,
586,587,588,589,
605,606,607,608,
624,625,626,627,
700,701,702,703,
719,720,721,722,
738,739,740,741,
757,758,759,760,
833,834,835,836,
852,853,854,855,
871,872,873,874,
890,891,892,893
225,
438,439,440,441,
457,458,459,460,
476,477,478,479,
495,496,497,498,
571,572,573,574,
590,591,592,593,
609,610,611,612,
628,629,630,631,
704,705,706,707,
723,724,725,726,
742,743,744,745,
761,762,763,764,
837,838,839,840,
856,857,858,859,
875,876,877,878,
894,895,896,897
226,
439,440,441,442,
458,459,460,461,
477,478,479,480,
496,497,498,499,
572,573,574,575,
591,592,593,594,
610,611,612,613,
629,630,631,632,
705,706,707,708,
724,725,726,727,
743,744,745,746,
762,763,764,765,
838,839,840,841,
857,858,859,860,
876,877,878,879,
895,896,897,898
227,
440,441,442,443,
459,460,461,462,
478,479,480,481,
497,498,499,500,
573,574,575,576,
592,593,594,595,
611,612,613,614,
630,631,632,633,
706,707,708,709,
725,726,727,728,
744,745,746,747,
763,764,765,766,
839,840,841,842,
858,859,860,861,
877,878,879,880,
896,897,898,899
228,
441,442,443,444,
460,461,462,463,
479,480,481,482,
498,499,500,501,
574,575,576,577,
593,594,595,596,
612,613,614,615,
631,632,633,634,
707,708,709,710,
726,727,728,729,
745,746,747,748,
764,765,766,767,
840,841,842,843,
859,860,861,862,
878,879,880,881,
897,898,899,900
229,
442,443,444,445,
461,462,463,464,
480,481,482,483,
499,500,501,502,
575,576,577,578,
594,595,596,597,
613,614,615,616,
632,633,634,635,
708,709,710,711,
727,728,729,730,
746,747,748,749,
765,766,767,768,
841,842,843,844,
860,861,862,863,
879,880,881,882,
898,899,900,901
230,
443,444,445,446,
462,463,464,465,
481,482,483,484,
500,501,502,503,
576,577,578,579,
595,596,597,598,
614,615,616,617,
633,634,635,636,
709,710,711,712,
728,729,730,731,
747,748,749,750,
766,767,768,769,
842,843,844,845,
861,862,863,864,
880,881,882,883,
899,900,901,902
231,
444,445,446,447,
463,464,465,466,
482,483,484,485,
501,502,503,504,
577,578,579,580,
596,597,598,599,
615,616,617,618,
634,635,636,637,
710,711,712,713,
729,730,731,732,
748,749,750,751,
767,768,769,770,
843,844,845,846,
862,863,864,865,
881,882,883,884,
900,901,902,903
232,
445,446,447,448,
464,465,466,467,
483,484,485,486,
502,503,504,505,
578,579,580,581,
597,598,599,600,
616,617,618,619,
635,636,637,638,
711,712,713,714,
730,731,732,733,
749,750,751,752,
768,769,770,771,
844,845,846,847,
863,864,865,866,
882,883,884,885,
901,902,903,904
233,
446,447,448,449,
465,466,467,468,
484,485,486,487,
503,504,505,506,
579,580,581,582,
598,599,600,601,
617,618,619,620,
636,637,638,639,
712,713,714,715,
731,732,733,734,
750,751,752,753,
769,770,771,772,
845,846,847,848,
864,865,866,867,
883,884,885,886,
902,903,904,905
234,
447,448,449,450,
466,467,468,469,
485,486,487,488,
504,505,506,507,
580,581,582,583,
599,600,601,602,
618,619,620,621,
637,638,639,640,
713,714,715,716,
732,733,734,735,
751,752,753,754,
770,771,772,773,
846,847,848,849,
865,866,867,868,
884,885,886,887,
903,904,905,906
235,
448,449,450,451,
467,468,469,470,
486,487,488,489,
505,506,507,508,
581,582,583,584,
600,601,602,603,
619,620,621,622,
638,639,640,641,
714,715,716,717,
733,734,735,736,
752,753,754,755,
771,772,773,774,
847,848,849,850,
866,867,868,869,
885,886,887,888,
904,905,906,907
236,
449,450,451,452,
468,469,470,471,
487,488,489,490,
506,507,508,509,
582,583,584,585,
601,602,603,604,
620,621,622,623,
639,640,641,642,
715,716,717,718,
734,735,736,737,
753,754,755,756,
772,773,774,775,
848,849,850,851,
867,868,869,870,
886,887,888,889,
905,906,907,908
237,
450,451,452,453,
469,470,471,472,
488,489,490,491,
507,508,509,510,
583,584,585,586,
602,603,604,605,
621,622,623,624,
640,641,642,643,
716,717,718,719,
735,736,737,738,
754,755,756,757,
773,774,775,776,
849,850,851,852,
868,869,870,871,
887,888,889,890,
906,907,908,909
238,
451,452,453,454,
470,471,472,473,
489,490,491,492,
508,509,510,511,
584,585,586,587,
603,604,605,606,
622,623,624,625,
641,642,643,644,
717,718,719,720,
736,737,738,739,
755,756,757,758,
774,775,776,777,
850,851,852,853,
869,870,871,872,
888,889,890,891,
907,908,909,910
239,
452,453,454,455,
471,472,473,474,
490,491,492,493,
509,510,511,512,
585,586,587,588,
604,605,606,607,
623,624,625,626,
642,643,644,645,
718,719,720,721,
737,738,739,740,
756,757,758,759,
775,776,777,778,
851,852,853,854,
870,871,872,873,
889,890,891,892,
908,909,910,911
240,
453,454,455,456,
472,473,474,475,
491,492,493,494,
510,511,512,513,
586,587,588,589,
605,606,607,608,
624,625,626,627,
643,644,645,646,
719,720,721,722,
738,739,740,741,
757,758,759,760,
776,777,778,779,
852,853,854,855,
871,872,873,874,
890,891,892,893,
909,910,911,912
241,
457,458,459,460,
476,477,478,479,
495,496,497,498,
514,515,516,517,
590,591,592,593,
609,610,611,612,
628,629,630,631,
647,648,649,650,
723,724,725,726,
742,743,744,745,
761,762,763,764,
780,781,782,783,
856,857,858,859,
875,876,877,878,
894,895,896,897,
913,914,915,916
242,
458,459,460,461,
477,478,479,480,
496,497,498,499,
515,516,517,518,
591,592,593,594,
610,611,612,613,
629,630,631,632,
648,649,650,651,
724,725,726,727,
743,744,745,746,
762,763,764,765,
781,782,783,784,
857,858,859,860,
876,877,878,879,
895,896,897,898,
914,915,916,917
243,
459,460,461,462,
478,479,480,481,
497,498,499,500,
516,517,518,519,
592,593,594,595,
611,612,613,614,
630,631,632,633,
649,650,651,652,
725,726,727,728,
744,745,746,747,
763,764,765,766,
782,783,784,785,
858,859,860,861,
877,878,879,880,
896,897,898,899,
915,916,917,918
244,
460,461,462,463,
479,480,481,482,
498,499,500,501,
517,518,519,520,
593,594,595,596,
612,613,614,615,
631,632,633,634,
650,651,652,653,
726,727,728,729,
745,746,747,748,
764,765,766,767,
783,784,785,786,
859,860,861,862,
878,879,880,881,
897,898,899,900,
916,917,918,919
245,
461,462,463,464,
480,481,482,483,
499,500,501,502,
518,519,520,521,
594,595,596,597,
613,614,615,616,
632,633,634,635,
651,652,653,654,
727,728,729,730,
746,747,748,749,
765,766,767,768,
784,785,786,787,
860,861,862,863,
879,880,881,882,
898,899,900,901,
917,918,919,920
246,
462,463,464,465,
481,482,483,484,
500,501,502,503,
519,520,521,522,
595,596,597,598,
614,615,616,617,
633,634,635,636,
652,653,654,655,
728,729,730,731,
747,748,749,750,
766,767,768,769,
785,786,787,788,
861,862,863,864,
880,881,882,883,
899,900,901,902,
918,919,920,921
247,
463,464,465,466,
482,483,484,485,
501,502,503,504,
520,521,522,523,
596,597,598,599,
615,616,617,618,
634,635,636,637,
653,654,655,656,
729,730,731,732,
748,749,750,751,
767,768,769,770,
786,787,788,789,
862,863,864,865,
881,882,883,884,
900,901,902,903,
919,920,921,922
248,
464,465,466,467,
483,484,485,486,
502,503,504,505,
521,522,523,524,
597,598,599,600,
616,617,618,619,
635,636,637,638,
654,655,656,657,
730,731,732,733,
749,750,751,752,
768,769,770,771,
787,788,789,790,
863,864,865,866,
882,883,884,885,
901,902,903,904,
920,921,922,923
249,
465,466,467,468,
484,485,486,487,
503,504,505,506,
522,523,524,525,
598,599,600,601,
617,618,619,620,
636,637,638,639,
655,656,657,658,
731,732,733,734,
750,751,752,753,
769,770,771,772,
788,789,790,791,
864,865,866,867,
883,884,885,886,
902,903,904,905,
921,922,923,924
250,
466,467,468,469,
485,486,487,488,
504,505,506,507,
523,524,525,526,
599,600,601,602,
618,619,620,621,
637,638,639,640,
656,657,658,659,
732,733,734,735,
751,752,753,754,
770,771,772,773,
789,790,791,792,
865,866,867,868,
884,885,886,887,
903,904,905,906,
922,923,924,925
251,
467,468,469,470,
486,487,488,489,
505,506,507,508,
524,525,526,527,
600,601,602,603,
619,620,621,622,
638,639,640,641,
657,658,659,660,
733,734,735,736,
752,753,754,755,
771,772,773,774,
790,791,792,793,
866,867,868,869,
885,886,887,888,
904,905,906,907,
923,924,925,926
252,
468,469,470,471,
487,488,489,490,
506,507,508,509,
525,526,527,528,
601,602,603,604,
620,621,622,623,
639,640,641,642,
658,659,660,661,
734,735,736,737,
753,754,755,756,
772,773,774,775,
791,792,793,794,
867,868,869,870,
886,887,888,889,
905,906,907,908,
924,925,926,927
253,
469,470,471,472,
488,489,490,491,
507,508,509,510,
526,527,528,529,
602,603,604,605,
621,622,623,624,
640,641,642,643,
659,660,661,662,
735,736,737,738,
754,755,756,757,
773,774,775,776,
792,793,794,795,
868,869,870,871,
887,888,889,890,
906,907,908,909,
925,926,927,928
254,
470,471,472,473,
489,490,491,492,
508,509,510,511,
527,528,529,530,
603,604,605,606,
622,623,624,625,
641,642,643,644,
660,661,662,663,
736,737,738,739,
755,756,757,758,
774,775,776,777,
793,794,795,796,
869,870,871,872,
888,889,890,891,
907,908,909,910,
926,927,928,929
255,
471,472,473,474,
490,491,492,493,
509,510,511,512,
528,529,530,531,
604,605,606,607,
623,624,625,626,
642,643,644,645,
661,662,663,664,
737,738,739,740,
756,757,758,759,
775,776,777,778,
794,795,796,797,
870,871,872,873,
889,890,891,892,
908,909,910,911,
927,928,929,930
256,
472,473,474,475,
491,492,493,494,
510,511,512,513,
529,530,531,532,
605,606,607,608,
624,625,626,627,
643,644,645,646,
662,663,664,665,
738,739,740,741,
757,758,759,760,
776,777,778,779,
795,796,797,798,
871,872,873,874,
890,891,892,893,
909,910,911,912,
928,929,930,931
**
*UEL PROPERTY,ELSET=ELSET1 
4, 4, 4, 16, 4, 4, 931, 3, 
3, 3, 23, 11, 11, 4, 4, 4, 
1, 0, 0, -100, 200000, 0.3, 0.5 
**
** --- Max number of nodes or elements in line is 10!
**
*NSET, NSET=NSET_left1
1, 20, 39, 58, 77, 96, 115, 134, 153, 172,
191, 210, 229, 248, 267, 286, 305, 324, 343, 362,
381, 400, 419, 438, 457, 476, 495, 514, 533, 552,
571, 590, 609, 628, 647, 666, 685, 704, 723, 742,
761, 780, 799, 818, 837, 856, 875, 894, 913
**
*NSET, NSET=NSET_left2
2, 21, 40, 59, 78, 97, 116, 135, 154, 173,
192, 211, 230, 249, 268, 287, 306, 325, 344, 363,
382, 401, 420, 439, 458, 477, 496, 515, 534, 553,
572, 591, 610, 629, 648, 667, 686, 705, 724, 743,
762, 781, 800, 819, 838, 857, 876, 895, 914
**
*NSET, NSET=NSET_right1
19, 38, 57, 76, 95, 114, 133, 152, 171, 190,
209, 228, 247, 266, 285, 304, 323, 342, 361, 380,
399, 418, 437, 456, 475, 494, 513, 532, 551, 570,
589, 608, 627, 646, 665, 684, 703, 722, 741, 760,
779, 798, 817, 836, 855, 874, 893, 912, 931
**
*NSET, NSET=NSET_right2
18, 37, 56, 75, 94, 113, 132, 151, 170, 189,
208, 227, 246, 265, 284, 303, 322, 341, 360, 379,
398, 417, 436, 455, 474, 493, 512, 531, 550, 569,
588, 607, 626, 645, 664, 683, 702, 721, 740, 759,
778, 797, 816, 835, 854, 873, 892, 911, 930
**
*NSET, NSET=NSET_bottom1
1, 2, 3, 4, 5, 6, 7, 8, 9, 10,
11, 12, 13, 14, 15, 16, 17, 18, 19, 134,
135, 136, 137, 138, 139, 140, 141, 142, 143, 144,
145, 146, 147, 148, 149, 150, 151, 152, 267, 268,
269, 270, 271, 272, 273, 274, 275, 276, 277, 278,
279, 280, 281, 282, 283, 284, 285, 400, 401, 402,
403, 404, 405, 406, 407, 408, 409, 410, 411, 412,
413, 414, 415, 416, 417, 418, 533, 534, 535, 536,
537, 538, 539, 540, 541, 542, 543, 544, 545, 546,
547, 548, 549, 550, 551, 666, 667, 668, 669, 670,
671, 672, 673, 674, 675, 676, 677, 678, 679, 680,
681, 682, 683, 684, 799, 800, 801, 802, 803, 804,
805, 806, 807, 808, 809, 810, 811, 812, 813, 814,
815, 816, 817
**
*NSET, NSET=NSET_bottom2
20, 21, 22, 23, 24, 25, 26, 27, 28, 29,
30, 31, 32, 33, 34, 35, 36, 37, 38, 153,
154, 155, 156, 157, 158, 159, 160, 161, 162, 163,
164, 165, 166, 167, 168, 169, 170, 171, 286, 287,
288, 289, 290, 291, 292, 293, 294, 295, 296, 297,
298, 299, 300, 301, 302, 303, 304, 419, 420, 421,
422, 423, 424, 425, 426, 427, 428, 429, 430, 431,
432, 433, 434, 435, 436, 437, 552, 553, 554, 555,
556, 557, 558, 559, 560, 561, 562, 563, 564, 565,
566, 567, 568, 569, 570, 685, 686, 687, 688, 689,
690, 691, 692, 693, 694, 695, 696, 697, 698, 699,
700, 701, 702, 703, 818, 819, 820, 821, 822, 823,
824, 825, 826, 827, 828, 829, 830, 831, 832, 833,
834, 835, 836
**
*NSET, NSET=NSET_top1
115, 116, 117, 118, 119, 120, 121, 122, 123, 124,
125, 126, 127, 128, 129, 130, 131, 132, 133, 248,
249, 250, 251, 252, 253, 254, 255, 256, 257, 258,
259, 260, 261, 262, 263, 264, 265, 266, 381, 382,
383, 384, 385, 386, 387, 388, 389, 390, 391, 392,
393, 394, 395, 396, 397, 398, 399, 514, 515, 516,
517, 518, 519, 520, 521, 522, 523, 524, 525, 526,
527, 528, 529, 530, 531, 532, 647, 648, 649, 650,
651, 652, 653, 654, 655, 656, 657, 658, 659, 660,
661, 662, 663, 664, 665, 780, 781, 782, 783, 784,
785, 786, 787, 788, 789, 790, 791, 792, 793, 794,
795, 796, 797, 798, 913, 914, 915, 916, 917, 918,
919, 920, 921, 922, 923, 924, 925, 926, 927, 928,
929, 930, 931
**
*NSET, NSET=NSET_top2
96, 97, 98, 99, 100, 101, 102, 103, 104, 105,
106, 107, 108, 109, 110, 111, 112, 113, 114, 229,
230, 231, 232, 233, 234, 235, 236, 237, 238, 239,
240, 241, 242, 243, 244, 245, 246, 247, 362, 363,
364, 365, 366, 367, 368, 369, 370, 371, 372, 373,
374, 375, 376, 377, 378, 379, 380, 495, 496, 497,
498, 499, 500, 501, 502, 503, 504, 505, 506, 507,
508, 509, 510, 511, 512, 513, 628, 629, 630, 631,
632, 633, 634, 635, 636, 637, 638, 639, 640, 641,
642, 643, 644, 645, 646, 761, 762, 763, 764, 765,
766, 767, 768, 769, 770, 771, 772, 773, 774, 775,
776, 777, 778, 779, 894, 895, 896, 897, 898, 899,
900, 901, 902, 903, 904, 905, 906, 907, 908, 909,
910, 911, 912
**
*NSET, NSET=NSET_back1
1, 2, 3, 4, 5, 6, 7, 8, 9, 10,
11, 12, 13, 14, 15, 16, 17, 18, 19, 20,
21, 22, 23, 24, 25, 26, 27, 28, 29, 30,
31, 32, 33, 34, 35, 36, 37, 38, 39, 40,
41, 42, 43, 44, 45, 46, 47, 48, 49, 50,
51, 52, 53, 54, 55, 56, 57, 58, 59, 60,
61, 62, 63, 64, 65, 66, 67, 68, 69, 70,
71, 72, 73, 74, 75, 76, 77, 78, 79, 80,
81, 82, 83, 84, 85, 86, 87, 88, 89, 90,
91, 92, 93, 94, 95, 96, 97, 98, 99, 100,
101, 102, 103, 104, 105, 106, 107, 108, 109, 110,
111, 112, 113, 114, 115, 116, 117, 118, 119, 120,
121, 122, 123, 124, 125, 126, 127, 128, 129, 130,
131, 132, 133
**
*NSET, NSET=NSET_back2
134, 135, 136, 137, 138, 139, 140, 141, 142, 143,
144, 145, 146, 147, 148, 149, 150, 151, 152, 153,
154, 155, 156, 157, 158, 159, 160, 161, 162, 163,
164, 165, 166, 167, 168, 169, 170, 171, 172, 173,
174, 175, 176, 177, 178, 179, 180, 181, 182, 183,
184, 185, 186, 187, 188, 189, 190, 191, 192, 193,
194, 195, 196, 197, 198, 199, 200, 201, 202, 203,
204, 205, 206, 207, 208, 209, 210, 211, 212, 213,
214, 215, 216, 217, 218, 219, 220, 221, 222, 223,
224, 225, 226, 227, 228, 229, 230, 231, 232, 233,
234, 235, 236, 237, 238, 239, 240, 241, 242, 243,
244, 245, 246, 247, 248, 249, 250, 251, 252, 253,
254, 255, 256, 257, 258, 259, 260, 261, 262, 263,
264, 265, 266
**
*NSET, NSET=NSET_front1
799, 800, 801, 802, 803, 804, 805, 806, 807, 808,
809, 810, 811, 812, 813, 814, 815, 816, 817, 818,
819, 820, 821, 822, 823, 824, 825, 826, 827, 828,
829, 830, 831, 832, 833, 834, 835, 836, 837, 838,
839, 840, 841, 842, 843, 844, 845, 846, 847, 848,
849, 850, 851, 852, 853, 854, 855, 856, 857, 858,
859, 860, 861, 862, 863, 864, 865, 866, 867, 868,
869, 870, 871, 872, 873, 874, 875, 876, 877, 878,
879, 880, 881, 882, 883, 884, 885, 886, 887, 888,
889, 890, 891, 892, 893, 894, 895, 896, 897, 898,
899, 900, 901, 902, 903, 904, 905, 906, 907, 908,
909, 910, 911, 912, 913, 914, 915, 916, 917, 918,
919, 920, 921, 922, 923, 924, 925, 926, 927, 928,
929, 930, 931
**
*NSET, NSET=NSET_front2
666, 667, 668, 669, 670, 671, 672, 673, 674, 675,
676, 677, 678, 679, 680, 681, 682, 683, 684, 685,
686, 687, 688, 689, 690, 691, 692, 693, 694, 695,
696, 697, 698, 699, 700, 701, 702, 703, 704, 705,
706, 707, 708, 709, 710, 711, 712, 713, 714, 715,
716, 717, 718, 719, 720, 721, 722, 723, 724, 725,
726, 727, 728, 729, 730, 731, 732, 733, 734, 735,
736, 737, 738, 739, 740, 741, 742, 743, 744, 745,
746, 747, 748, 749, 750, 751, 752, 753, 754, 755,
756, 757, 758, 759, 760, 761, 762, 763, 764, 765,
766, 767, 768, 769, 770, 771, 772, 773, 774, 775,
776, 777, 778, 779, 780, 781, 782, 783, 784, 785,
786, 787, 788, 789, 790, 791, 792, 793, 794, 795,
796, 797, 798
**
*STEP,NAME=STEP1
*STATIC
**
*BOUNDARY, TYPE=DISPLACEMENT
NSET_left1,1,3,0
*END STEP
