*HEADING
MATLAB generated Abaqus Input File for 3D igUEL subroutine 

**
*NODE,NSET=ALLNODES
1, -2, -2, -2
2, -1.875, -2, -2
3, -1.625, -2, -2
4, -1.25, -2, -2
5, -0.75, -2, -2
6, -0.25, -2, -2
7, 0.25, -2, -2
8, 0.75, -2, -2
9, 1.25, -2, -2
10, 1.625, -2, -2
11, 1.875, -2, -2
12, 2, -2, -2
13, -2, -1.875, -2
14, -1.875, -1.875, -2
15, -1.625, -1.875, -2
16, -1.25, -1.875, -2
17, -0.75, -1.875, -2
18, -0.25, -1.875, -2
19, 0.25, -1.875, -2
20, 0.75, -1.875, -2
21, 1.25, -1.875, -2
22, 1.625, -1.875, -2
23, 1.875, -1.875, -2
24, 2, -1.875, -2
25, -2, -1.625, -2
26, -1.875, -1.625, -2
27, -1.625, -1.625, -2
28, -1.25, -1.625, -2
29, -0.75, -1.625, -2
30, -0.25, -1.625, -2
31, 0.25, -1.625, -2
32, 0.75, -1.625, -2
33, 1.25, -1.625, -2
34, 1.625, -1.625, -2
35, 1.875, -1.625, -2
36, 2, -1.625, -2
37, -2, -1.25, -2
38, -1.875, -1.25, -2
39, -1.625, -1.25, -2
40, -1.25, -1.25, -2
41, -0.75, -1.25, -2
42, -0.25, -1.25, -2
43, 0.25, -1.25, -2
44, 0.75, -1.25, -2
45, 1.25, -1.25, -2
46, 1.625, -1.25, -2
47, 1.875, -1.25, -2
48, 2, -1.25, -2
49, -2, -0.75, -2
50, -1.875, -0.75, -2
51, -1.625, -0.75, -2
52, -1.25, -0.75, -2
53, -0.75, -0.75, -2
54, -0.25, -0.75, -2
55, 0.25, -0.75, -2
56, 0.75, -0.75, -2
57, 1.25, -0.75, -2
58, 1.625, -0.75, -2
59, 1.875, -0.75, -2
60, 2, -0.75, -2
61, -2, -0.25, -2
62, -1.875, -0.25, -2
63, -1.625, -0.2499999999999999, -2
64, -1.25, -0.2499999999999999, -2
65, -0.75, -0.2499999999999999, -2
66, -0.25, -0.2499999999999999, -2
67, 0.25, -0.2499999999999999, -2
68, 0.75, -0.2499999999999999, -2
69, 1.25, -0.2499999999999999, -2
70, 1.625, -0.25, -2
71, 1.875, -0.25, -2
72, 2, -0.25, -2
73, -2, 0.25, -2
74, -1.875, 0.25, -2
75, -1.625, 0.25, -2
76, -1.25, 0.25, -2
77, -0.75, 0.25, -2
78, -0.25, 0.25, -2
79, 0.25, 0.25, -2
80, 0.75, 0.25, -2
81, 1.25, 0.25, -2
82, 1.625, 0.25, -2
83, 1.875, 0.25, -2
84, 2, 0.25, -2
85, -2, 0.75, -2
86, -1.875, 0.75, -2
87, -1.625, 0.75, -2
88, -1.25, 0.75, -2
89, -0.75, 0.75, -2
90, -0.25, 0.75, -2
91, 0.25, 0.75, -2
92, 0.75, 0.75, -2
93, 1.25, 0.75, -2
94, 1.625, 0.75, -2
95, 1.875, 0.75, -2
96, 2, 0.75, -2
97, -2, 1.25, -2
98, -1.875, 1.25, -2
99, -1.625, 1.25, -2
100, -1.25, 1.25, -2
101, -0.75, 1.25, -2
102, -0.25, 1.25, -2
103, 0.25, 1.25, -2
104, 0.75, 1.25, -2
105, 1.25, 1.25, -2
106, 1.625, 1.25, -2
107, 1.875, 1.25, -2
108, 2, 1.25, -2
109, -2, 1.625, -2
110, -1.875, 1.625, -2
111, -1.625, 1.625, -2
112, -1.25, 1.625, -2
113, -0.75, 1.625, -2
114, -0.25, 1.625, -2
115, 0.25, 1.625, -2
116, 0.75, 1.625, -2
117, 1.25, 1.625, -2
118, 1.625, 1.625, -2
119, 1.875, 1.625, -2
120, 2, 1.625, -2
121, -2, 1.875, -2
122, -1.875, 1.875, -2
123, -1.625, 1.875, -2
124, -1.25, 1.875, -2
125, -0.75, 1.875, -2
126, -0.25, 1.875, -2
127, 0.25, 1.875, -2
128, 0.75, 1.875, -2
129, 1.25, 1.875, -2
130, 1.625, 1.875, -2
131, 1.875, 1.875, -2
132, 2, 1.875, -2
133, -2, 2, -2
134, -1.875, 2, -2
135, -1.625, 2, -2
136, -1.25, 2, -2
137, -0.75, 2, -2
138, -0.25, 2, -2
139, 0.25, 2, -2
140, 0.75, 2, -2
141, 1.25, 2, -2
142, 1.625, 2, -2
143, 1.875, 2, -2
144, 2, 2, -2
145, -2, -2, -1.875
146, -1.875, -2, -1.875
147, -1.625, -2, -1.875
148, -1.25, -2, -1.875
149, -0.75, -2, -1.875
150, -0.25, -2, -1.875
151, 0.25, -2, -1.875
152, 0.75, -2, -1.875
153, 1.25, -2, -1.875
154, 1.625, -2, -1.875
155, 1.875, -2, -1.875
156, 2, -2, -1.875
157, -2, -1.875, -1.875
158, -1.875, -1.875, -1.875
159, -1.625, -1.875, -1.875
160, -1.25, -1.875, -1.875
161, -0.75, -1.875, -1.875
162, -0.25, -1.875, -1.875
163, 0.25, -1.875, -1.875
164, 0.75, -1.875, -1.875
165, 1.25, -1.875, -1.875
166, 1.625, -1.875, -1.875
167, 1.875, -1.875, -1.875
168, 2, -1.875, -1.875
169, -2, -1.625, -1.875
170, -1.875, -1.625, -1.875
171, -1.625, -1.625, -1.875
172, -1.25, -1.625, -1.875
173, -0.75, -1.625, -1.875
174, -0.25, -1.625, -1.875
175, 0.25, -1.625, -1.875
176, 0.75, -1.625, -1.875
177, 1.25, -1.625, -1.875
178, 1.625, -1.625, -1.875
179, 1.875, -1.625, -1.875
180, 2, -1.625, -1.875
181, -2, -1.25, -1.875
182, -1.875, -1.25, -1.875
183, -1.625, -1.25, -1.875
184, -1.25, -1.25, -1.875
185, -0.75, -1.25, -1.875
186, -0.25, -1.25, -1.875
187, 0.25, -1.25, -1.875
188, 0.75, -1.25, -1.875
189, 1.25, -1.25, -1.875
190, 1.625, -1.25, -1.875
191, 1.875, -1.25, -1.875
192, 2, -1.25, -1.875
193, -2, -0.75, -1.875
194, -1.875, -0.75, -1.875
195, -1.625, -0.75, -1.875
196, -1.25, -0.75, -1.875
197, -0.75, -0.75, -1.875
198, -0.25, -0.75, -1.875
199, 0.25, -0.75, -1.875
200, 0.75, -0.75, -1.875
201, 1.25, -0.75, -1.875
202, 1.625, -0.75, -1.875
203, 1.875, -0.75, -1.875
204, 2, -0.75, -1.875
205, -2, -0.25, -1.875
206, -1.875, -0.25, -1.875
207, -1.625, -0.2499999999999999, -1.875
208, -1.25, -0.2499999999999999, -1.875
209, -0.75, -0.2499999999999999, -1.875
210, -0.25, -0.2499999999999999, -1.875
211, 0.25, -0.2499999999999999, -1.875
212, 0.75, -0.2499999999999999, -1.875
213, 1.25, -0.2499999999999999, -1.875
214, 1.625, -0.25, -1.875
215, 1.875, -0.25, -1.875
216, 2, -0.25, -1.875
217, -2, 0.25, -1.875
218, -1.875, 0.25, -1.875
219, -1.625, 0.25, -1.875
220, -1.25, 0.25, -1.875
221, -0.75, 0.25, -1.875
222, -0.25, 0.25, -1.875
223, 0.25, 0.25, -1.875
224, 0.75, 0.25, -1.875
225, 1.25, 0.25, -1.875
226, 1.625, 0.25, -1.875
227, 1.875, 0.25, -1.875
228, 2, 0.25, -1.875
229, -2, 0.75, -1.875
230, -1.875, 0.75, -1.875
231, -1.625, 0.75, -1.875
232, -1.25, 0.75, -1.875
233, -0.75, 0.75, -1.875
234, -0.25, 0.75, -1.875
235, 0.25, 0.75, -1.875
236, 0.75, 0.75, -1.875
237, 1.25, 0.75, -1.875
238, 1.625, 0.75, -1.875
239, 1.875, 0.75, -1.875
240, 2, 0.75, -1.875
241, -2, 1.25, -1.875
242, -1.875, 1.25, -1.875
243, -1.625, 1.25, -1.875
244, -1.25, 1.25, -1.875
245, -0.75, 1.25, -1.875
246, -0.25, 1.25, -1.875
247, 0.25, 1.25, -1.875
248, 0.75, 1.25, -1.875
249, 1.25, 1.25, -1.875
250, 1.625, 1.25, -1.875
251, 1.875, 1.25, -1.875
252, 2, 1.25, -1.875
253, -2, 1.625, -1.875
254, -1.875, 1.625, -1.875
255, -1.625, 1.625, -1.875
256, -1.25, 1.625, -1.875
257, -0.75, 1.625, -1.875
258, -0.25, 1.625, -1.875
259, 0.25, 1.625, -1.875
260, 0.75, 1.625, -1.875
261, 1.25, 1.625, -1.875
262, 1.625, 1.625, -1.875
263, 1.875, 1.625, -1.875
264, 2, 1.625, -1.875
265, -2, 1.875, -1.875
266, -1.875, 1.875, -1.875
267, -1.625, 1.875, -1.875
268, -1.25, 1.875, -1.875
269, -0.75, 1.875, -1.875
270, -0.25, 1.875, -1.875
271, 0.25, 1.875, -1.875
272, 0.75, 1.875, -1.875
273, 1.25, 1.875, -1.875
274, 1.625, 1.875, -1.875
275, 1.875, 1.875, -1.875
276, 2, 1.875, -1.875
277, -2, 2, -1.875
278, -1.875, 2, -1.875
279, -1.625, 2, -1.875
280, -1.25, 2, -1.875
281, -0.75, 2, -1.875
282, -0.25, 2, -1.875
283, 0.25, 2, -1.875
284, 0.75, 2, -1.875
285, 1.25, 2, -1.875
286, 1.625, 2, -1.875
287, 1.875, 2, -1.875
288, 2, 2, -1.875
289, -2, -2, -1.625
290, -1.875, -2, -1.625
291, -1.625, -2, -1.625
292, -1.25, -2, -1.625
293, -0.75, -2, -1.625
294, -0.25, -2, -1.625
295, 0.25, -2, -1.625
296, 0.75, -2, -1.625
297, 1.25, -2, -1.625
298, 1.625, -2, -1.625
299, 1.875, -2, -1.625
300, 2, -2, -1.625
301, -2, -1.875, -1.625
302, -1.875, -1.875, -1.625
303, -1.625, -1.875, -1.625
304, -1.25, -1.875, -1.625
305, -0.75, -1.875, -1.625
306, -0.25, -1.875, -1.625
307, 0.25, -1.875, -1.625
308, 0.75, -1.875, -1.625
309, 1.25, -1.875, -1.625
310, 1.625, -1.875, -1.625
311, 1.875, -1.875, -1.625
312, 2, -1.875, -1.625
313, -2, -1.625, -1.625
314, -1.875, -1.625, -1.625
315, -1.625, -1.625, -1.625
316, -1.25, -1.625, -1.625
317, -0.75, -1.625, -1.625
318, -0.25, -1.625, -1.625
319, 0.25, -1.625, -1.625
320, 0.75, -1.625, -1.625
321, 1.25, -1.625, -1.625
322, 1.625, -1.625, -1.625
323, 1.875, -1.625, -1.625
324, 2, -1.625, -1.625
325, -2, -1.25, -1.625
326, -1.875, -1.25, -1.625
327, -1.625, -1.25, -1.625
328, -1.25, -1.25, -1.625
329, -0.75, -1.25, -1.625
330, -0.25, -1.25, -1.625
331, 0.25, -1.25, -1.625
332, 0.75, -1.25, -1.625
333, 1.25, -1.25, -1.625
334, 1.625, -1.25, -1.625
335, 1.875, -1.25, -1.625
336, 2, -1.25, -1.625
337, -2, -0.75, -1.625
338, -1.875, -0.75, -1.625
339, -1.625, -0.75, -1.625
340, -1.25, -0.75, -1.625
341, -0.75, -0.75, -1.625
342, -0.25, -0.75, -1.625
343, 0.25, -0.75, -1.625
344, 0.75, -0.75, -1.625
345, 1.25, -0.75, -1.625
346, 1.625, -0.75, -1.625
347, 1.875, -0.75, -1.625
348, 2, -0.75, -1.625
349, -2, -0.25, -1.625
350, -1.875, -0.25, -1.625
351, -1.625, -0.2499999999999999, -1.625
352, -1.25, -0.2499999999999999, -1.625
353, -0.75, -0.2499999999999999, -1.625
354, -0.25, -0.2499999999999999, -1.625
355, 0.25, -0.2499999999999999, -1.625
356, 0.75, -0.2499999999999999, -1.625
357, 1.25, -0.2499999999999999, -1.625
358, 1.625, -0.25, -1.625
359, 1.875, -0.25, -1.625
360, 2, -0.25, -1.625
361, -2, 0.25, -1.625
362, -1.875, 0.25, -1.625
363, -1.625, 0.25, -1.625
364, -1.25, 0.25, -1.625
365, -0.75, 0.25, -1.625
366, -0.25, 0.25, -1.625
367, 0.25, 0.25, -1.625
368, 0.75, 0.25, -1.625
369, 1.25, 0.25, -1.625
370, 1.625, 0.25, -1.625
371, 1.875, 0.25, -1.625
372, 2, 0.25, -1.625
373, -2, 0.75, -1.625
374, -1.875, 0.75, -1.625
375, -1.625, 0.75, -1.625
376, -1.25, 0.75, -1.625
377, -0.75, 0.75, -1.625
378, -0.25, 0.75, -1.625
379, 0.25, 0.75, -1.625
380, 0.75, 0.75, -1.625
381, 1.25, 0.75, -1.625
382, 1.625, 0.75, -1.625
383, 1.875, 0.75, -1.625
384, 2, 0.75, -1.625
385, -2, 1.25, -1.625
386, -1.875, 1.25, -1.625
387, -1.625, 1.25, -1.625
388, -1.25, 1.25, -1.625
389, -0.75, 1.25, -1.625
390, -0.25, 1.25, -1.625
391, 0.25, 1.25, -1.625
392, 0.75, 1.25, -1.625
393, 1.25, 1.25, -1.625
394, 1.625, 1.25, -1.625
395, 1.875, 1.25, -1.625
396, 2, 1.25, -1.625
397, -2, 1.625, -1.625
398, -1.875, 1.625, -1.625
399, -1.625, 1.625, -1.625
400, -1.25, 1.625, -1.625
401, -0.75, 1.625, -1.625
402, -0.25, 1.625, -1.625
403, 0.25, 1.625, -1.625
404, 0.75, 1.625, -1.625
405, 1.25, 1.625, -1.625
406, 1.625, 1.625, -1.625
407, 1.875, 1.625, -1.625
408, 2, 1.625, -1.625
409, -2, 1.875, -1.625
410, -1.875, 1.875, -1.625
411, -1.625, 1.875, -1.625
412, -1.25, 1.875, -1.625
413, -0.75, 1.875, -1.625
414, -0.25, 1.875, -1.625
415, 0.25, 1.875, -1.625
416, 0.75, 1.875, -1.625
417, 1.25, 1.875, -1.625
418, 1.625, 1.875, -1.625
419, 1.875, 1.875, -1.625
420, 2, 1.875, -1.625
421, -2, 2, -1.625
422, -1.875, 2, -1.625
423, -1.625, 2, -1.625
424, -1.25, 2, -1.625
425, -0.75, 2, -1.625
426, -0.25, 2, -1.625
427, 0.25, 2, -1.625
428, 0.75, 2, -1.625
429, 1.25, 2, -1.625
430, 1.625, 2, -1.625
431, 1.875, 2, -1.625
432, 2, 2, -1.625
433, -2, -2, -1.25
434, -1.875, -2, -1.25
435, -1.625, -2, -1.25
436, -1.25, -2, -1.25
437, -0.75, -2, -1.25
438, -0.25, -2, -1.25
439, 0.25, -2, -1.25
440, 0.75, -2, -1.25
441, 1.25, -2, -1.25
442, 1.625, -2, -1.25
443, 1.875, -2, -1.25
444, 2, -2, -1.25
445, -2, -1.875, -1.25
446, -1.875, -1.875, -1.25
447, -1.625, -1.875, -1.25
448, -1.25, -1.875, -1.25
449, -0.75, -1.875, -1.25
450, -0.25, -1.875, -1.25
451, 0.25, -1.875, -1.25
452, 0.75, -1.875, -1.25
453, 1.25, -1.875, -1.25
454, 1.625, -1.875, -1.25
455, 1.875, -1.875, -1.25
456, 2, -1.875, -1.25
457, -2, -1.625, -1.25
458, -1.875, -1.625, -1.25
459, -1.625, -1.625, -1.25
460, -1.25, -1.625, -1.25
461, -0.75, -1.625, -1.25
462, -0.25, -1.625, -1.25
463, 0.25, -1.625, -1.25
464, 0.75, -1.625, -1.25
465, 1.25, -1.625, -1.25
466, 1.625, -1.625, -1.25
467, 1.875, -1.625, -1.25
468, 2, -1.625, -1.25
469, -2, -1.25, -1.25
470, -1.875, -1.25, -1.25
471, -1.625, -1.25, -1.25
472, -1.25, -1.25, -1.25
473, -0.75, -1.25, -1.25
474, -0.25, -1.25, -1.25
475, 0.25, -1.25, -1.25
476, 0.75, -1.25, -1.25
477, 1.25, -1.25, -1.25
478, 1.625, -1.25, -1.25
479, 1.875, -1.25, -1.25
480, 2, -1.25, -1.25
481, -2, -0.75, -1.25
482, -1.875, -0.75, -1.25
483, -1.625, -0.75, -1.25
484, -1.25, -0.75, -1.25
485, -0.75, -0.75, -1.25
486, -0.25, -0.75, -1.25
487, 0.25, -0.75, -1.25
488, 0.75, -0.75, -1.25
489, 1.25, -0.75, -1.25
490, 1.625, -0.75, -1.25
491, 1.875, -0.75, -1.25
492, 2, -0.75, -1.25
493, -2, -0.25, -1.25
494, -1.875, -0.25, -1.25
495, -1.625, -0.2499999999999999, -1.25
496, -1.25, -0.2499999999999999, -1.25
497, -0.75, -0.2499999999999999, -1.25
498, -0.25, -0.2499999999999999, -1.25
499, 0.25, -0.2499999999999999, -1.25
500, 0.75, -0.2499999999999999, -1.25
501, 1.25, -0.2499999999999999, -1.25
502, 1.625, -0.25, -1.25
503, 1.875, -0.25, -1.25
504, 2, -0.25, -1.25
505, -2, 0.25, -1.25
506, -1.875, 0.25, -1.25
507, -1.625, 0.25, -1.25
508, -1.25, 0.25, -1.25
509, -0.75, 0.25, -1.25
510, -0.25, 0.25, -1.25
511, 0.25, 0.25, -1.25
512, 0.75, 0.25, -1.25
513, 1.25, 0.25, -1.25
514, 1.625, 0.25, -1.25
515, 1.875, 0.25, -1.25
516, 2, 0.25, -1.25
517, -2, 0.75, -1.25
518, -1.875, 0.75, -1.25
519, -1.625, 0.75, -1.25
520, -1.25, 0.75, -1.25
521, -0.75, 0.75, -1.25
522, -0.25, 0.75, -1.25
523, 0.25, 0.75, -1.25
524, 0.75, 0.75, -1.25
525, 1.25, 0.75, -1.25
526, 1.625, 0.75, -1.25
527, 1.875, 0.75, -1.25
528, 2, 0.75, -1.25
529, -2, 1.25, -1.25
530, -1.875, 1.25, -1.25
531, -1.625, 1.25, -1.25
532, -1.25, 1.25, -1.25
533, -0.75, 1.25, -1.25
534, -0.25, 1.25, -1.25
535, 0.25, 1.25, -1.25
536, 0.75, 1.25, -1.25
537, 1.25, 1.25, -1.25
538, 1.625, 1.25, -1.25
539, 1.875, 1.25, -1.25
540, 2, 1.25, -1.25
541, -2, 1.625, -1.25
542, -1.875, 1.625, -1.25
543, -1.625, 1.625, -1.25
544, -1.25, 1.625, -1.25
545, -0.75, 1.625, -1.25
546, -0.25, 1.625, -1.25
547, 0.25, 1.625, -1.25
548, 0.75, 1.625, -1.25
549, 1.25, 1.625, -1.25
550, 1.625, 1.625, -1.25
551, 1.875, 1.625, -1.25
552, 2, 1.625, -1.25
553, -2, 1.875, -1.25
554, -1.875, 1.875, -1.25
555, -1.625, 1.875, -1.25
556, -1.25, 1.875, -1.25
557, -0.75, 1.875, -1.25
558, -0.25, 1.875, -1.25
559, 0.25, 1.875, -1.25
560, 0.75, 1.875, -1.25
561, 1.25, 1.875, -1.25
562, 1.625, 1.875, -1.25
563, 1.875, 1.875, -1.25
564, 2, 1.875, -1.25
565, -2, 2, -1.25
566, -1.875, 2, -1.25
567, -1.625, 2, -1.25
568, -1.25, 2, -1.25
569, -0.75, 2, -1.25
570, -0.25, 2, -1.25
571, 0.25, 2, -1.25
572, 0.75, 2, -1.25
573, 1.25, 2, -1.25
574, 1.625, 2, -1.25
575, 1.875, 2, -1.25
576, 2, 2, -1.25
577, -2, -2, -0.75
578, -1.875, -2, -0.75
579, -1.625, -2, -0.75
580, -1.25, -2, -0.75
581, -0.75, -2, -0.75
582, -0.25, -2, -0.75
583, 0.25, -2, -0.75
584, 0.75, -2, -0.75
585, 1.25, -2, -0.75
586, 1.625, -2, -0.75
587, 1.875, -2, -0.75
588, 2, -2, -0.75
589, -2, -1.875, -0.75
590, -1.875, -1.875, -0.75
591, -1.625, -1.875, -0.75
592, -1.25, -1.875, -0.75
593, -0.75, -1.875, -0.75
594, -0.25, -1.875, -0.75
595, 0.25, -1.875, -0.75
596, 0.75, -1.875, -0.75
597, 1.25, -1.875, -0.75
598, 1.625, -1.875, -0.75
599, 1.875, -1.875, -0.75
600, 2, -1.875, -0.75
601, -2, -1.625, -0.75
602, -1.875, -1.625, -0.75
603, -1.625, -1.625, -0.75
604, -1.25, -1.625, -0.75
605, -0.75, -1.625, -0.75
606, -0.25, -1.625, -0.75
607, 0.25, -1.625, -0.75
608, 0.75, -1.625, -0.75
609, 1.25, -1.625, -0.75
610, 1.625, -1.625, -0.75
611, 1.875, -1.625, -0.75
612, 2, -1.625, -0.75
613, -2, -1.25, -0.75
614, -1.875, -1.25, -0.75
615, -1.625, -1.25, -0.75
616, -1.25, -1.25, -0.75
617, -0.75, -1.25, -0.75
618, -0.25, -1.25, -0.75
619, 0.25, -1.25, -0.75
620, 0.75, -1.25, -0.75
621, 1.25, -1.25, -0.75
622, 1.625, -1.25, -0.75
623, 1.875, -1.25, -0.75
624, 2, -1.25, -0.75
625, -2, -0.75, -0.75
626, -1.875, -0.75, -0.75
627, -1.625, -0.75, -0.75
628, -1.25, -0.75, -0.75
629, -0.75, -0.75, -0.75
630, -0.25, -0.75, -0.75
631, 0.25, -0.75, -0.75
632, 0.75, -0.75, -0.75
633, 1.25, -0.75, -0.75
634, 1.625, -0.75, -0.75
635, 1.875, -0.75, -0.75
636, 2, -0.75, -0.75
637, -2, -0.25, -0.75
638, -1.875, -0.25, -0.75
639, -1.625, -0.2499999999999999, -0.75
640, -1.25, -0.2499999999999999, -0.75
641, -0.75, -0.2499999999999999, -0.75
642, -0.25, -0.2499999999999999, -0.75
643, 0.25, -0.2499999999999999, -0.75
644, 0.75, -0.2499999999999999, -0.75
645, 1.25, -0.2499999999999999, -0.75
646, 1.625, -0.25, -0.75
647, 1.875, -0.25, -0.75
648, 2, -0.25, -0.75
649, -2, 0.25, -0.75
650, -1.875, 0.25, -0.75
651, -1.625, 0.25, -0.75
652, -1.25, 0.25, -0.75
653, -0.75, 0.25, -0.75
654, -0.25, 0.25, -0.75
655, 0.25, 0.25, -0.75
656, 0.75, 0.25, -0.75
657, 1.25, 0.25, -0.75
658, 1.625, 0.25, -0.75
659, 1.875, 0.25, -0.75
660, 2, 0.25, -0.75
661, -2, 0.75, -0.75
662, -1.875, 0.75, -0.75
663, -1.625, 0.75, -0.75
664, -1.25, 0.75, -0.75
665, -0.75, 0.75, -0.75
666, -0.25, 0.75, -0.75
667, 0.25, 0.75, -0.75
668, 0.75, 0.75, -0.75
669, 1.25, 0.75, -0.75
670, 1.625, 0.75, -0.75
671, 1.875, 0.75, -0.75
672, 2, 0.75, -0.75
673, -2, 1.25, -0.75
674, -1.875, 1.25, -0.75
675, -1.625, 1.25, -0.75
676, -1.25, 1.25, -0.75
677, -0.75, 1.25, -0.75
678, -0.25, 1.25, -0.75
679, 0.25, 1.25, -0.75
680, 0.75, 1.25, -0.75
681, 1.25, 1.25, -0.75
682, 1.625, 1.25, -0.75
683, 1.875, 1.25, -0.75
684, 2, 1.25, -0.75
685, -2, 1.625, -0.75
686, -1.875, 1.625, -0.75
687, -1.625, 1.625, -0.75
688, -1.25, 1.625, -0.75
689, -0.75, 1.625, -0.75
690, -0.25, 1.625, -0.75
691, 0.25, 1.625, -0.75
692, 0.75, 1.625, -0.75
693, 1.25, 1.625, -0.75
694, 1.625, 1.625, -0.75
695, 1.875, 1.625, -0.75
696, 2, 1.625, -0.75
697, -2, 1.875, -0.75
698, -1.875, 1.875, -0.75
699, -1.625, 1.875, -0.75
700, -1.25, 1.875, -0.75
701, -0.75, 1.875, -0.75
702, -0.25, 1.875, -0.75
703, 0.25, 1.875, -0.75
704, 0.75, 1.875, -0.75
705, 1.25, 1.875, -0.75
706, 1.625, 1.875, -0.75
707, 1.875, 1.875, -0.75
708, 2, 1.875, -0.75
709, -2, 2, -0.75
710, -1.875, 2, -0.75
711, -1.625, 2, -0.75
712, -1.25, 2, -0.75
713, -0.75, 2, -0.75
714, -0.25, 2, -0.75
715, 0.25, 2, -0.75
716, 0.75, 2, -0.75
717, 1.25, 2, -0.75
718, 1.625, 2, -0.75
719, 1.875, 2, -0.75
720, 2, 2, -0.75
721, -2, -2, -0.25
722, -1.875, -2, -0.25
723, -1.625, -2, -0.25
724, -1.25, -2, -0.25
725, -0.75, -2, -0.25
726, -0.25, -2, -0.25
727, 0.25, -2, -0.25
728, 0.75, -2, -0.25
729, 1.25, -2, -0.25
730, 1.625, -2, -0.25
731, 1.875, -2, -0.25
732, 2, -2, -0.25
733, -2, -1.875, -0.25
734, -1.875, -1.875, -0.25
735, -1.625, -1.875, -0.25
736, -1.25, -1.875, -0.25
737, -0.75, -1.875, -0.25
738, -0.25, -1.875, -0.25
739, 0.25, -1.875, -0.25
740, 0.75, -1.875, -0.25
741, 1.25, -1.875, -0.25
742, 1.625, -1.875, -0.25
743, 1.875, -1.875, -0.25
744, 2, -1.875, -0.25
745, -2, -1.625, -0.25
746, -1.875, -1.625, -0.25
747, -1.625, -1.625, -0.25
748, -1.25, -1.625, -0.25
749, -0.75, -1.625, -0.25
750, -0.25, -1.625, -0.25
751, 0.25, -1.625, -0.25
752, 0.75, -1.625, -0.25
753, 1.25, -1.625, -0.25
754, 1.625, -1.625, -0.25
755, 1.875, -1.625, -0.25
756, 2, -1.625, -0.25
757, -2, -1.25, -0.25
758, -1.875, -1.25, -0.25
759, -1.625, -1.25, -0.25
760, -1.25, -1.25, -0.25
761, -0.75, -1.25, -0.25
762, -0.25, -1.25, -0.25
763, 0.25, -1.25, -0.25
764, 0.75, -1.25, -0.25
765, 1.25, -1.25, -0.25
766, 1.625, -1.25, -0.25
767, 1.875, -1.25, -0.25
768, 2, -1.25, -0.25
769, -2, -0.75, -0.25
770, -1.875, -0.75, -0.25
771, -1.625, -0.75, -0.25
772, -1.25, -0.75, -0.25
773, -0.75, -0.75, -0.25
774, -0.25, -0.75, -0.25
775, 0.25, -0.75, -0.25
776, 0.75, -0.75, -0.25
777, 1.25, -0.75, -0.25
778, 1.625, -0.75, -0.25
779, 1.875, -0.75, -0.25
780, 2, -0.75, -0.25
781, -2, -0.25, -0.25
782, -1.875, -0.25, -0.25
783, -1.625, -0.2499999999999999, -0.25
784, -1.25, -0.2499999999999999, -0.25
785, -0.75, -0.2499999999999999, -0.25
786, -0.25, -0.2499999999999999, -0.25
787, 0.25, -0.2499999999999999, -0.25
788, 0.75, -0.2499999999999999, -0.25
789, 1.25, -0.2499999999999999, -0.25
790, 1.625, -0.25, -0.25
791, 1.875, -0.25, -0.25
792, 2, -0.25, -0.25
793, -2, 0.25, -0.25
794, -1.875, 0.25, -0.25
795, -1.625, 0.25, -0.25
796, -1.25, 0.25, -0.25
797, -0.75, 0.25, -0.25
798, -0.25, 0.25, -0.25
799, 0.25, 0.25, -0.25
800, 0.75, 0.25, -0.25
801, 1.25, 0.25, -0.25
802, 1.625, 0.25, -0.25
803, 1.875, 0.25, -0.25
804, 2, 0.25, -0.25
805, -2, 0.75, -0.25
806, -1.875, 0.75, -0.25
807, -1.625, 0.75, -0.25
808, -1.25, 0.75, -0.25
809, -0.75, 0.75, -0.25
810, -0.25, 0.75, -0.25
811, 0.25, 0.75, -0.25
812, 0.75, 0.75, -0.25
813, 1.25, 0.75, -0.25
814, 1.625, 0.75, -0.25
815, 1.875, 0.75, -0.25
816, 2, 0.75, -0.25
817, -2, 1.25, -0.25
818, -1.875, 1.25, -0.25
819, -1.625, 1.25, -0.25
820, -1.25, 1.25, -0.25
821, -0.75, 1.25, -0.25
822, -0.25, 1.25, -0.25
823, 0.25, 1.25, -0.25
824, 0.75, 1.25, -0.25
825, 1.25, 1.25, -0.25
826, 1.625, 1.25, -0.25
827, 1.875, 1.25, -0.25
828, 2, 1.25, -0.25
829, -2, 1.625, -0.25
830, -1.875, 1.625, -0.25
831, -1.625, 1.625, -0.25
832, -1.25, 1.625, -0.25
833, -0.75, 1.625, -0.25
834, -0.25, 1.625, -0.25
835, 0.25, 1.625, -0.25
836, 0.75, 1.625, -0.25
837, 1.25, 1.625, -0.25
838, 1.625, 1.625, -0.25
839, 1.875, 1.625, -0.25
840, 2, 1.625, -0.25
841, -2, 1.875, -0.25
842, -1.875, 1.875, -0.25
843, -1.625, 1.875, -0.25
844, -1.25, 1.875, -0.25
845, -0.75, 1.875, -0.25
846, -0.25, 1.875, -0.25
847, 0.25, 1.875, -0.25
848, 0.75, 1.875, -0.25
849, 1.25, 1.875, -0.25
850, 1.625, 1.875, -0.25
851, 1.875, 1.875, -0.25
852, 2, 1.875, -0.25
853, -2, 2, -0.25
854, -1.875, 2, -0.25
855, -1.625, 2, -0.25
856, -1.25, 2, -0.25
857, -0.75, 2, -0.25
858, -0.25, 2, -0.25
859, 0.25, 2, -0.25
860, 0.75, 2, -0.25
861, 1.25, 2, -0.25
862, 1.625, 2, -0.25
863, 1.875, 2, -0.25
864, 2, 2, -0.25
865, -2, -2, 0.25
866, -1.875, -2, 0.25
867, -1.625, -2, 0.25
868, -1.25, -2, 0.25
869, -0.75, -2, 0.25
870, -0.25, -2, 0.25
871, 0.25, -2, 0.25
872, 0.75, -2, 0.25
873, 1.25, -2, 0.25
874, 1.625, -2, 0.25
875, 1.875, -2, 0.25
876, 2, -2, 0.25
877, -2, -1.875, 0.25
878, -1.875, -1.875, 0.25
879, -1.625, -1.875, 0.25
880, -1.25, -1.875, 0.25
881, -0.75, -1.875, 0.25
882, -0.25, -1.875, 0.25
883, 0.25, -1.875, 0.25
884, 0.75, -1.875, 0.25
885, 1.25, -1.875, 0.25
886, 1.625, -1.875, 0.25
887, 1.875, -1.875, 0.25
888, 2, -1.875, 0.25
889, -2, -1.625, 0.25
890, -1.875, -1.625, 0.25
891, -1.625, -1.625, 0.25
892, -1.25, -1.625, 0.25
893, -0.75, -1.625, 0.25
894, -0.25, -1.625, 0.25
895, 0.25, -1.625, 0.25
896, 0.75, -1.625, 0.25
897, 1.25, -1.625, 0.25
898, 1.625, -1.625, 0.25
899, 1.875, -1.625, 0.25
900, 2, -1.625, 0.25
901, -2, -1.25, 0.25
902, -1.875, -1.25, 0.25
903, -1.625, -1.25, 0.25
904, -1.25, -1.25, 0.25
905, -0.75, -1.25, 0.25
906, -0.25, -1.25, 0.25
907, 0.25, -1.25, 0.25
908, 0.75, -1.25, 0.25
909, 1.25, -1.25, 0.25
910, 1.625, -1.25, 0.25
911, 1.875, -1.25, 0.25
912, 2, -1.25, 0.25
913, -2, -0.75, 0.25
914, -1.875, -0.75, 0.25
915, -1.625, -0.75, 0.25
916, -1.25, -0.75, 0.25
917, -0.75, -0.75, 0.25
918, -0.25, -0.75, 0.25
919, 0.25, -0.75, 0.25
920, 0.75, -0.75, 0.25
921, 1.25, -0.75, 0.25
922, 1.625, -0.75, 0.25
923, 1.875, -0.75, 0.25
924, 2, -0.75, 0.25
925, -2, -0.25, 0.25
926, -1.875, -0.25, 0.25
927, -1.625, -0.2499999999999999, 0.25
928, -1.25, -0.2499999999999999, 0.25
929, -0.75, -0.2499999999999999, 0.25
930, -0.25, -0.2499999999999999, 0.25
931, 0.25, -0.2499999999999999, 0.25
932, 0.75, -0.2499999999999999, 0.25
933, 1.25, -0.2499999999999999, 0.25
934, 1.625, -0.25, 0.25
935, 1.875, -0.25, 0.25
936, 2, -0.25, 0.25
937, -2, 0.25, 0.25
938, -1.875, 0.25, 0.25
939, -1.625, 0.25, 0.25
940, -1.25, 0.25, 0.25
941, -0.75, 0.25, 0.25
942, -0.25, 0.25, 0.25
943, 0.25, 0.25, 0.25
944, 0.75, 0.25, 0.25
945, 1.25, 0.25, 0.25
946, 1.625, 0.25, 0.25
947, 1.875, 0.25, 0.25
948, 2, 0.25, 0.25
949, -2, 0.75, 0.25
950, -1.875, 0.75, 0.25
951, -1.625, 0.75, 0.25
952, -1.25, 0.75, 0.25
953, -0.75, 0.75, 0.25
954, -0.25, 0.75, 0.25
955, 0.25, 0.75, 0.25
956, 0.75, 0.75, 0.25
957, 1.25, 0.75, 0.25
958, 1.625, 0.75, 0.25
959, 1.875, 0.75, 0.25
960, 2, 0.75, 0.25
961, -2, 1.25, 0.25
962, -1.875, 1.25, 0.25
963, -1.625, 1.25, 0.25
964, -1.25, 1.25, 0.25
965, -0.75, 1.25, 0.25
966, -0.25, 1.25, 0.25
967, 0.25, 1.25, 0.25
968, 0.75, 1.25, 0.25
969, 1.25, 1.25, 0.25
970, 1.625, 1.25, 0.25
971, 1.875, 1.25, 0.25
972, 2, 1.25, 0.25
973, -2, 1.625, 0.25
974, -1.875, 1.625, 0.25
975, -1.625, 1.625, 0.25
976, -1.25, 1.625, 0.25
977, -0.75, 1.625, 0.25
978, -0.25, 1.625, 0.25
979, 0.25, 1.625, 0.25
980, 0.75, 1.625, 0.25
981, 1.25, 1.625, 0.25
982, 1.625, 1.625, 0.25
983, 1.875, 1.625, 0.25
984, 2, 1.625, 0.25
985, -2, 1.875, 0.25
986, -1.875, 1.875, 0.25
987, -1.625, 1.875, 0.25
988, -1.25, 1.875, 0.25
989, -0.75, 1.875, 0.25
990, -0.25, 1.875, 0.25
991, 0.25, 1.875, 0.25
992, 0.75, 1.875, 0.25
993, 1.25, 1.875, 0.25
994, 1.625, 1.875, 0.25
995, 1.875, 1.875, 0.25
996, 2, 1.875, 0.25
997, -2, 2, 0.25
998, -1.875, 2, 0.25
999, -1.625, 2, 0.25
1000, -1.25, 2, 0.25
1001, -0.75, 2, 0.25
1002, -0.25, 2, 0.25
1003, 0.25, 2, 0.25
1004, 0.75, 2, 0.25
1005, 1.25, 2, 0.25
1006, 1.625, 2, 0.25
1007, 1.875, 2, 0.25
1008, 2, 2, 0.25
1009, -2, -2, 0.75
1010, -1.875, -2, 0.75
1011, -1.625, -2, 0.75
1012, -1.25, -2, 0.75
1013, -0.75, -2, 0.75
1014, -0.25, -2, 0.75
1015, 0.25, -2, 0.75
1016, 0.75, -2, 0.75
1017, 1.25, -2, 0.75
1018, 1.625, -2, 0.75
1019, 1.875, -2, 0.75
1020, 2, -2, 0.75
1021, -2, -1.875, 0.75
1022, -1.875, -1.875, 0.75
1023, -1.625, -1.875, 0.75
1024, -1.25, -1.875, 0.75
1025, -0.75, -1.875, 0.75
1026, -0.25, -1.875, 0.75
1027, 0.25, -1.875, 0.75
1028, 0.75, -1.875, 0.75
1029, 1.25, -1.875, 0.75
1030, 1.625, -1.875, 0.75
1031, 1.875, -1.875, 0.75
1032, 2, -1.875, 0.75
1033, -2, -1.625, 0.75
1034, -1.875, -1.625, 0.75
1035, -1.625, -1.625, 0.75
1036, -1.25, -1.625, 0.75
1037, -0.75, -1.625, 0.75
1038, -0.25, -1.625, 0.75
1039, 0.25, -1.625, 0.75
1040, 0.75, -1.625, 0.75
1041, 1.25, -1.625, 0.75
1042, 1.625, -1.625, 0.75
1043, 1.875, -1.625, 0.75
1044, 2, -1.625, 0.75
1045, -2, -1.25, 0.75
1046, -1.875, -1.25, 0.75
1047, -1.625, -1.25, 0.75
1048, -1.25, -1.25, 0.75
1049, -0.75, -1.25, 0.75
1050, -0.25, -1.25, 0.75
1051, 0.25, -1.25, 0.75
1052, 0.75, -1.25, 0.75
1053, 1.25, -1.25, 0.75
1054, 1.625, -1.25, 0.75
1055, 1.875, -1.25, 0.75
1056, 2, -1.25, 0.75
1057, -2, -0.75, 0.75
1058, -1.875, -0.75, 0.75
1059, -1.625, -0.75, 0.75
1060, -1.25, -0.75, 0.75
1061, -0.75, -0.75, 0.75
1062, -0.25, -0.75, 0.75
1063, 0.25, -0.75, 0.75
1064, 0.75, -0.75, 0.75
1065, 1.25, -0.75, 0.75
1066, 1.625, -0.75, 0.75
1067, 1.875, -0.75, 0.75
1068, 2, -0.75, 0.75
1069, -2, -0.25, 0.75
1070, -1.875, -0.25, 0.75
1071, -1.625, -0.2499999999999999, 0.75
1072, -1.25, -0.2499999999999999, 0.75
1073, -0.75, -0.2499999999999999, 0.75
1074, -0.25, -0.2499999999999999, 0.75
1075, 0.25, -0.2499999999999999, 0.75
1076, 0.75, -0.2499999999999999, 0.75
1077, 1.25, -0.2499999999999999, 0.75
1078, 1.625, -0.25, 0.75
1079, 1.875, -0.25, 0.75
1080, 2, -0.25, 0.75
1081, -2, 0.25, 0.75
1082, -1.875, 0.25, 0.75
1083, -1.625, 0.25, 0.75
1084, -1.25, 0.25, 0.75
1085, -0.75, 0.25, 0.75
1086, -0.25, 0.25, 0.75
1087, 0.25, 0.25, 0.75
1088, 0.75, 0.25, 0.75
1089, 1.25, 0.25, 0.75
1090, 1.625, 0.25, 0.75
1091, 1.875, 0.25, 0.75
1092, 2, 0.25, 0.75
1093, -2, 0.75, 0.75
1094, -1.875, 0.75, 0.75
1095, -1.625, 0.75, 0.75
1096, -1.25, 0.75, 0.75
1097, -0.75, 0.75, 0.75
1098, -0.25, 0.75, 0.75
1099, 0.25, 0.75, 0.75
1100, 0.75, 0.75, 0.75
1101, 1.25, 0.75, 0.75
1102, 1.625, 0.75, 0.75
1103, 1.875, 0.75, 0.75
1104, 2, 0.75, 0.75
1105, -2, 1.25, 0.75
1106, -1.875, 1.25, 0.75
1107, -1.625, 1.25, 0.75
1108, -1.25, 1.25, 0.75
1109, -0.75, 1.25, 0.75
1110, -0.25, 1.25, 0.75
1111, 0.25, 1.25, 0.75
1112, 0.75, 1.25, 0.75
1113, 1.25, 1.25, 0.75
1114, 1.625, 1.25, 0.75
1115, 1.875, 1.25, 0.75
1116, 2, 1.25, 0.75
1117, -2, 1.625, 0.75
1118, -1.875, 1.625, 0.75
1119, -1.625, 1.625, 0.75
1120, -1.25, 1.625, 0.75
1121, -0.75, 1.625, 0.75
1122, -0.25, 1.625, 0.75
1123, 0.25, 1.625, 0.75
1124, 0.75, 1.625, 0.75
1125, 1.25, 1.625, 0.75
1126, 1.625, 1.625, 0.75
1127, 1.875, 1.625, 0.75
1128, 2, 1.625, 0.75
1129, -2, 1.875, 0.75
1130, -1.875, 1.875, 0.75
1131, -1.625, 1.875, 0.75
1132, -1.25, 1.875, 0.75
1133, -0.75, 1.875, 0.75
1134, -0.25, 1.875, 0.75
1135, 0.25, 1.875, 0.75
1136, 0.75, 1.875, 0.75
1137, 1.25, 1.875, 0.75
1138, 1.625, 1.875, 0.75
1139, 1.875, 1.875, 0.75
1140, 2, 1.875, 0.75
1141, -2, 2, 0.75
1142, -1.875, 2, 0.75
1143, -1.625, 2, 0.75
1144, -1.25, 2, 0.75
1145, -0.75, 2, 0.75
1146, -0.25, 2, 0.75
1147, 0.25, 2, 0.75
1148, 0.75, 2, 0.75
1149, 1.25, 2, 0.75
1150, 1.625, 2, 0.75
1151, 1.875, 2, 0.75
1152, 2, 2, 0.75
1153, -2, -2, 1.25
1154, -1.875, -2, 1.25
1155, -1.625, -2, 1.25
1156, -1.25, -2, 1.25
1157, -0.75, -2, 1.25
1158, -0.25, -2, 1.25
1159, 0.25, -2, 1.25
1160, 0.75, -2, 1.25
1161, 1.25, -2, 1.25
1162, 1.625, -2, 1.25
1163, 1.875, -2, 1.25
1164, 2, -2, 1.25
1165, -2, -1.875, 1.25
1166, -1.875, -1.875, 1.25
1167, -1.625, -1.875, 1.25
1168, -1.25, -1.875, 1.25
1169, -0.75, -1.875, 1.25
1170, -0.25, -1.875, 1.25
1171, 0.25, -1.875, 1.25
1172, 0.75, -1.875, 1.25
1173, 1.25, -1.875, 1.25
1174, 1.625, -1.875, 1.25
1175, 1.875, -1.875, 1.25
1176, 2, -1.875, 1.25
1177, -2, -1.625, 1.25
1178, -1.875, -1.625, 1.25
1179, -1.625, -1.625, 1.25
1180, -1.25, -1.625, 1.25
1181, -0.75, -1.625, 1.25
1182, -0.25, -1.625, 1.25
1183, 0.25, -1.625, 1.25
1184, 0.75, -1.625, 1.25
1185, 1.25, -1.625, 1.25
1186, 1.625, -1.625, 1.25
1187, 1.875, -1.625, 1.25
1188, 2, -1.625, 1.25
1189, -2, -1.25, 1.25
1190, -1.875, -1.25, 1.25
1191, -1.625, -1.25, 1.25
1192, -1.25, -1.25, 1.25
1193, -0.75, -1.25, 1.25
1194, -0.25, -1.25, 1.25
1195, 0.25, -1.25, 1.25
1196, 0.75, -1.25, 1.25
1197, 1.25, -1.25, 1.25
1198, 1.625, -1.25, 1.25
1199, 1.875, -1.25, 1.25
1200, 2, -1.25, 1.25
1201, -2, -0.75, 1.25
1202, -1.875, -0.75, 1.25
1203, -1.625, -0.75, 1.25
1204, -1.25, -0.75, 1.25
1205, -0.75, -0.75, 1.25
1206, -0.25, -0.75, 1.25
1207, 0.25, -0.75, 1.25
1208, 0.75, -0.75, 1.25
1209, 1.25, -0.75, 1.25
1210, 1.625, -0.75, 1.25
1211, 1.875, -0.75, 1.25
1212, 2, -0.75, 1.25
1213, -2, -0.25, 1.25
1214, -1.875, -0.25, 1.25
1215, -1.625, -0.2499999999999999, 1.25
1216, -1.25, -0.2499999999999999, 1.25
1217, -0.75, -0.2499999999999999, 1.25
1218, -0.25, -0.2499999999999999, 1.25
1219, 0.25, -0.2499999999999999, 1.25
1220, 0.75, -0.2499999999999999, 1.25
1221, 1.25, -0.2499999999999999, 1.25
1222, 1.625, -0.25, 1.25
1223, 1.875, -0.25, 1.25
1224, 2, -0.25, 1.25
1225, -2, 0.25, 1.25
1226, -1.875, 0.25, 1.25
1227, -1.625, 0.25, 1.25
1228, -1.25, 0.25, 1.25
1229, -0.75, 0.25, 1.25
1230, -0.25, 0.25, 1.25
1231, 0.25, 0.25, 1.25
1232, 0.75, 0.25, 1.25
1233, 1.25, 0.25, 1.25
1234, 1.625, 0.25, 1.25
1235, 1.875, 0.25, 1.25
1236, 2, 0.25, 1.25
1237, -2, 0.75, 1.25
1238, -1.875, 0.75, 1.25
1239, -1.625, 0.75, 1.25
1240, -1.25, 0.75, 1.25
1241, -0.75, 0.75, 1.25
1242, -0.25, 0.75, 1.25
1243, 0.25, 0.75, 1.25
1244, 0.75, 0.75, 1.25
1245, 1.25, 0.75, 1.25
1246, 1.625, 0.75, 1.25
1247, 1.875, 0.75, 1.25
1248, 2, 0.75, 1.25
1249, -2, 1.25, 1.25
1250, -1.875, 1.25, 1.25
1251, -1.625, 1.25, 1.25
1252, -1.25, 1.25, 1.25
1253, -0.75, 1.25, 1.25
1254, -0.25, 1.25, 1.25
1255, 0.25, 1.25, 1.25
1256, 0.75, 1.25, 1.25
1257, 1.25, 1.25, 1.25
1258, 1.625, 1.25, 1.25
1259, 1.875, 1.25, 1.25
1260, 2, 1.25, 1.25
1261, -2, 1.625, 1.25
1262, -1.875, 1.625, 1.25
1263, -1.625, 1.625, 1.25
1264, -1.25, 1.625, 1.25
1265, -0.75, 1.625, 1.25
1266, -0.25, 1.625, 1.25
1267, 0.25, 1.625, 1.25
1268, 0.75, 1.625, 1.25
1269, 1.25, 1.625, 1.25
1270, 1.625, 1.625, 1.25
1271, 1.875, 1.625, 1.25
1272, 2, 1.625, 1.25
1273, -2, 1.875, 1.25
1274, -1.875, 1.875, 1.25
1275, -1.625, 1.875, 1.25
1276, -1.25, 1.875, 1.25
1277, -0.75, 1.875, 1.25
1278, -0.25, 1.875, 1.25
1279, 0.25, 1.875, 1.25
1280, 0.75, 1.875, 1.25
1281, 1.25, 1.875, 1.25
1282, 1.625, 1.875, 1.25
1283, 1.875, 1.875, 1.25
1284, 2, 1.875, 1.25
1285, -2, 2, 1.25
1286, -1.875, 2, 1.25
1287, -1.625, 2, 1.25
1288, -1.25, 2, 1.25
1289, -0.75, 2, 1.25
1290, -0.25, 2, 1.25
1291, 0.25, 2, 1.25
1292, 0.75, 2, 1.25
1293, 1.25, 2, 1.25
1294, 1.625, 2, 1.25
1295, 1.875, 2, 1.25
1296, 2, 2, 1.25
1297, -2, -2, 1.625
1298, -1.875, -2, 1.625
1299, -1.625, -2, 1.625
1300, -1.25, -2, 1.625
1301, -0.75, -2, 1.625
1302, -0.25, -2, 1.625
1303, 0.25, -2, 1.625
1304, 0.75, -2, 1.625
1305, 1.25, -2, 1.625
1306, 1.625, -2, 1.625
1307, 1.875, -2, 1.625
1308, 2, -2, 1.625
1309, -2, -1.875, 1.625
1310, -1.875, -1.875, 1.625
1311, -1.625, -1.875, 1.625
1312, -1.25, -1.875, 1.625
1313, -0.75, -1.875, 1.625
1314, -0.25, -1.875, 1.625
1315, 0.25, -1.875, 1.625
1316, 0.75, -1.875, 1.625
1317, 1.25, -1.875, 1.625
1318, 1.625, -1.875, 1.625
1319, 1.875, -1.875, 1.625
1320, 2, -1.875, 1.625
1321, -2, -1.625, 1.625
1322, -1.875, -1.625, 1.625
1323, -1.625, -1.625, 1.625
1324, -1.25, -1.625, 1.625
1325, -0.75, -1.625, 1.625
1326, -0.25, -1.625, 1.625
1327, 0.25, -1.625, 1.625
1328, 0.75, -1.625, 1.625
1329, 1.25, -1.625, 1.625
1330, 1.625, -1.625, 1.625
1331, 1.875, -1.625, 1.625
1332, 2, -1.625, 1.625
1333, -2, -1.25, 1.625
1334, -1.875, -1.25, 1.625
1335, -1.625, -1.25, 1.625
1336, -1.25, -1.25, 1.625
1337, -0.75, -1.25, 1.625
1338, -0.25, -1.25, 1.625
1339, 0.25, -1.25, 1.625
1340, 0.75, -1.25, 1.625
1341, 1.25, -1.25, 1.625
1342, 1.625, -1.25, 1.625
1343, 1.875, -1.25, 1.625
1344, 2, -1.25, 1.625
1345, -2, -0.75, 1.625
1346, -1.875, -0.75, 1.625
1347, -1.625, -0.75, 1.625
1348, -1.25, -0.75, 1.625
1349, -0.75, -0.75, 1.625
1350, -0.25, -0.75, 1.625
1351, 0.25, -0.75, 1.625
1352, 0.75, -0.75, 1.625
1353, 1.25, -0.75, 1.625
1354, 1.625, -0.75, 1.625
1355, 1.875, -0.75, 1.625
1356, 2, -0.75, 1.625
1357, -2, -0.25, 1.625
1358, -1.875, -0.25, 1.625
1359, -1.625, -0.2499999999999999, 1.625
1360, -1.25, -0.2499999999999999, 1.625
1361, -0.75, -0.2499999999999999, 1.625
1362, -0.25, -0.2499999999999999, 1.625
1363, 0.25, -0.2499999999999999, 1.625
1364, 0.75, -0.2499999999999999, 1.625
1365, 1.25, -0.2499999999999999, 1.625
1366, 1.625, -0.25, 1.625
1367, 1.875, -0.25, 1.625
1368, 2, -0.25, 1.625
1369, -2, 0.25, 1.625
1370, -1.875, 0.25, 1.625
1371, -1.625, 0.25, 1.625
1372, -1.25, 0.25, 1.625
1373, -0.75, 0.25, 1.625
1374, -0.25, 0.25, 1.625
1375, 0.25, 0.25, 1.625
1376, 0.75, 0.25, 1.625
1377, 1.25, 0.25, 1.625
1378, 1.625, 0.25, 1.625
1379, 1.875, 0.25, 1.625
1380, 2, 0.25, 1.625
1381, -2, 0.75, 1.625
1382, -1.875, 0.75, 1.625
1383, -1.625, 0.75, 1.625
1384, -1.25, 0.75, 1.625
1385, -0.75, 0.75, 1.625
1386, -0.25, 0.75, 1.625
1387, 0.25, 0.75, 1.625
1388, 0.75, 0.75, 1.625
1389, 1.25, 0.75, 1.625
1390, 1.625, 0.75, 1.625
1391, 1.875, 0.75, 1.625
1392, 2, 0.75, 1.625
1393, -2, 1.25, 1.625
1394, -1.875, 1.25, 1.625
1395, -1.625, 1.25, 1.625
1396, -1.25, 1.25, 1.625
1397, -0.75, 1.25, 1.625
1398, -0.25, 1.25, 1.625
1399, 0.25, 1.25, 1.625
1400, 0.75, 1.25, 1.625
1401, 1.25, 1.25, 1.625
1402, 1.625, 1.25, 1.625
1403, 1.875, 1.25, 1.625
1404, 2, 1.25, 1.625
1405, -2, 1.625, 1.625
1406, -1.875, 1.625, 1.625
1407, -1.625, 1.625, 1.625
1408, -1.25, 1.625, 1.625
1409, -0.75, 1.625, 1.625
1410, -0.25, 1.625, 1.625
1411, 0.25, 1.625, 1.625
1412, 0.75, 1.625, 1.625
1413, 1.25, 1.625, 1.625
1414, 1.625, 1.625, 1.625
1415, 1.875, 1.625, 1.625
1416, 2, 1.625, 1.625
1417, -2, 1.875, 1.625
1418, -1.875, 1.875, 1.625
1419, -1.625, 1.875, 1.625
1420, -1.25, 1.875, 1.625
1421, -0.75, 1.875, 1.625
1422, -0.25, 1.875, 1.625
1423, 0.25, 1.875, 1.625
1424, 0.75, 1.875, 1.625
1425, 1.25, 1.875, 1.625
1426, 1.625, 1.875, 1.625
1427, 1.875, 1.875, 1.625
1428, 2, 1.875, 1.625
1429, -2, 2, 1.625
1430, -1.875, 2, 1.625
1431, -1.625, 2, 1.625
1432, -1.25, 2, 1.625
1433, -0.75, 2, 1.625
1434, -0.25, 2, 1.625
1435, 0.25, 2, 1.625
1436, 0.75, 2, 1.625
1437, 1.25, 2, 1.625
1438, 1.625, 2, 1.625
1439, 1.875, 2, 1.625
1440, 2, 2, 1.625
1441, -2, -2, 1.875
1442, -1.875, -2, 1.875
1443, -1.625, -2, 1.875
1444, -1.25, -2, 1.875
1445, -0.75, -2, 1.875
1446, -0.25, -2, 1.875
1447, 0.25, -2, 1.875
1448, 0.75, -2, 1.875
1449, 1.25, -2, 1.875
1450, 1.625, -2, 1.875
1451, 1.875, -2, 1.875
1452, 2, -2, 1.875
1453, -2, -1.875, 1.875
1454, -1.875, -1.875, 1.875
1455, -1.625, -1.875, 1.875
1456, -1.25, -1.875, 1.875
1457, -0.75, -1.875, 1.875
1458, -0.25, -1.875, 1.875
1459, 0.25, -1.875, 1.875
1460, 0.75, -1.875, 1.875
1461, 1.25, -1.875, 1.875
1462, 1.625, -1.875, 1.875
1463, 1.875, -1.875, 1.875
1464, 2, -1.875, 1.875
1465, -2, -1.625, 1.875
1466, -1.875, -1.625, 1.875
1467, -1.625, -1.625, 1.875
1468, -1.25, -1.625, 1.875
1469, -0.75, -1.625, 1.875
1470, -0.25, -1.625, 1.875
1471, 0.25, -1.625, 1.875
1472, 0.75, -1.625, 1.875
1473, 1.25, -1.625, 1.875
1474, 1.625, -1.625, 1.875
1475, 1.875, -1.625, 1.875
1476, 2, -1.625, 1.875
1477, -2, -1.25, 1.875
1478, -1.875, -1.25, 1.875
1479, -1.625, -1.25, 1.875
1480, -1.25, -1.25, 1.875
1481, -0.75, -1.25, 1.875
1482, -0.25, -1.25, 1.875
1483, 0.25, -1.25, 1.875
1484, 0.75, -1.25, 1.875
1485, 1.25, -1.25, 1.875
1486, 1.625, -1.25, 1.875
1487, 1.875, -1.25, 1.875
1488, 2, -1.25, 1.875
1489, -2, -0.75, 1.875
1490, -1.875, -0.75, 1.875
1491, -1.625, -0.75, 1.875
1492, -1.25, -0.75, 1.875
1493, -0.75, -0.75, 1.875
1494, -0.25, -0.75, 1.875
1495, 0.25, -0.75, 1.875
1496, 0.75, -0.75, 1.875
1497, 1.25, -0.75, 1.875
1498, 1.625, -0.75, 1.875
1499, 1.875, -0.75, 1.875
1500, 2, -0.75, 1.875
1501, -2, -0.25, 1.875
1502, -1.875, -0.25, 1.875
1503, -1.625, -0.2499999999999999, 1.875
1504, -1.25, -0.2499999999999999, 1.875
1505, -0.75, -0.2499999999999999, 1.875
1506, -0.25, -0.2499999999999999, 1.875
1507, 0.25, -0.2499999999999999, 1.875
1508, 0.75, -0.2499999999999999, 1.875
1509, 1.25, -0.2499999999999999, 1.875
1510, 1.625, -0.25, 1.875
1511, 1.875, -0.25, 1.875
1512, 2, -0.25, 1.875
1513, -2, 0.25, 1.875
1514, -1.875, 0.25, 1.875
1515, -1.625, 0.25, 1.875
1516, -1.25, 0.25, 1.875
1517, -0.75, 0.25, 1.875
1518, -0.25, 0.25, 1.875
1519, 0.25, 0.25, 1.875
1520, 0.75, 0.25, 1.875
1521, 1.25, 0.25, 1.875
1522, 1.625, 0.25, 1.875
1523, 1.875, 0.25, 1.875
1524, 2, 0.25, 1.875
1525, -2, 0.75, 1.875
1526, -1.875, 0.75, 1.875
1527, -1.625, 0.75, 1.875
1528, -1.25, 0.75, 1.875
1529, -0.75, 0.75, 1.875
1530, -0.25, 0.75, 1.875
1531, 0.25, 0.75, 1.875
1532, 0.75, 0.75, 1.875
1533, 1.25, 0.75, 1.875
1534, 1.625, 0.75, 1.875
1535, 1.875, 0.75, 1.875
1536, 2, 0.75, 1.875
1537, -2, 1.25, 1.875
1538, -1.875, 1.25, 1.875
1539, -1.625, 1.25, 1.875
1540, -1.25, 1.25, 1.875
1541, -0.75, 1.25, 1.875
1542, -0.25, 1.25, 1.875
1543, 0.25, 1.25, 1.875
1544, 0.75, 1.25, 1.875
1545, 1.25, 1.25, 1.875
1546, 1.625, 1.25, 1.875
1547, 1.875, 1.25, 1.875
1548, 2, 1.25, 1.875
1549, -2, 1.625, 1.875
1550, -1.875, 1.625, 1.875
1551, -1.625, 1.625, 1.875
1552, -1.25, 1.625, 1.875
1553, -0.75, 1.625, 1.875
1554, -0.25, 1.625, 1.875
1555, 0.25, 1.625, 1.875
1556, 0.75, 1.625, 1.875
1557, 1.25, 1.625, 1.875
1558, 1.625, 1.625, 1.875
1559, 1.875, 1.625, 1.875
1560, 2, 1.625, 1.875
1561, -2, 1.875, 1.875
1562, -1.875, 1.875, 1.875
1563, -1.625, 1.875, 1.875
1564, -1.25, 1.875, 1.875
1565, -0.75, 1.875, 1.875
1566, -0.25, 1.875, 1.875
1567, 0.25, 1.875, 1.875
1568, 0.75, 1.875, 1.875
1569, 1.25, 1.875, 1.875
1570, 1.625, 1.875, 1.875
1571, 1.875, 1.875, 1.875
1572, 2, 1.875, 1.875
1573, -2, 2, 1.875
1574, -1.875, 2, 1.875
1575, -1.625, 2, 1.875
1576, -1.25, 2, 1.875
1577, -0.75, 2, 1.875
1578, -0.25, 2, 1.875
1579, 0.25, 2, 1.875
1580, 0.75, 2, 1.875
1581, 1.25, 2, 1.875
1582, 1.625, 2, 1.875
1583, 1.875, 2, 1.875
1584, 2, 2, 1.875
1585, -2, -2, 2
1586, -1.875, -2, 2
1587, -1.625, -2, 2
1588, -1.25, -2, 2
1589, -0.75, -2, 2
1590, -0.25, -2, 2
1591, 0.25, -2, 2
1592, 0.75, -2, 2
1593, 1.25, -2, 2
1594, 1.625, -2, 2
1595, 1.875, -2, 2
1596, 2, -2, 2
1597, -2, -1.875, 2
1598, -1.875, -1.875, 2
1599, -1.625, -1.875, 2
1600, -1.25, -1.875, 2
1601, -0.75, -1.875, 2
1602, -0.25, -1.875, 2
1603, 0.25, -1.875, 2
1604, 0.75, -1.875, 2
1605, 1.25, -1.875, 2
1606, 1.625, -1.875, 2
1607, 1.875, -1.875, 2
1608, 2, -1.875, 2
1609, -2, -1.625, 2
1610, -1.875, -1.625, 2
1611, -1.625, -1.625, 2
1612, -1.25, -1.625, 2
1613, -0.75, -1.625, 2
1614, -0.25, -1.625, 2
1615, 0.25, -1.625, 2
1616, 0.75, -1.625, 2
1617, 1.25, -1.625, 2
1618, 1.625, -1.625, 2
1619, 1.875, -1.625, 2
1620, 2, -1.625, 2
1621, -2, -1.25, 2
1622, -1.875, -1.25, 2
1623, -1.625, -1.25, 2
1624, -1.25, -1.25, 2
1625, -0.75, -1.25, 2
1626, -0.25, -1.25, 2
1627, 0.25, -1.25, 2
1628, 0.75, -1.25, 2
1629, 1.25, -1.25, 2
1630, 1.625, -1.25, 2
1631, 1.875, -1.25, 2
1632, 2, -1.25, 2
1633, -2, -0.75, 2
1634, -1.875, -0.75, 2
1635, -1.625, -0.75, 2
1636, -1.25, -0.75, 2
1637, -0.75, -0.75, 2
1638, -0.25, -0.75, 2
1639, 0.25, -0.75, 2
1640, 0.75, -0.75, 2
1641, 1.25, -0.75, 2
1642, 1.625, -0.75, 2
1643, 1.875, -0.75, 2
1644, 2, -0.75, 2
1645, -2, -0.25, 2
1646, -1.875, -0.25, 2
1647, -1.625, -0.2499999999999999, 2
1648, -1.25, -0.2499999999999999, 2
1649, -0.75, -0.2499999999999999, 2
1650, -0.25, -0.2499999999999999, 2
1651, 0.25, -0.2499999999999999, 2
1652, 0.75, -0.2499999999999999, 2
1653, 1.25, -0.2499999999999999, 2
1654, 1.625, -0.25, 2
1655, 1.875, -0.25, 2
1656, 2, -0.25, 2
1657, -2, 0.25, 2
1658, -1.875, 0.25, 2
1659, -1.625, 0.25, 2
1660, -1.25, 0.25, 2
1661, -0.75, 0.25, 2
1662, -0.25, 0.25, 2
1663, 0.25, 0.25, 2
1664, 0.75, 0.25, 2
1665, 1.25, 0.25, 2
1666, 1.625, 0.25, 2
1667, 1.875, 0.25, 2
1668, 2, 0.25, 2
1669, -2, 0.75, 2
1670, -1.875, 0.75, 2
1671, -1.625, 0.75, 2
1672, -1.25, 0.75, 2
1673, -0.75, 0.75, 2
1674, -0.25, 0.75, 2
1675, 0.25, 0.75, 2
1676, 0.75, 0.75, 2
1677, 1.25, 0.75, 2
1678, 1.625, 0.75, 2
1679, 1.875, 0.75, 2
1680, 2, 0.75, 2
1681, -2, 1.25, 2
1682, -1.875, 1.25, 2
1683, -1.625, 1.25, 2
1684, -1.25, 1.25, 2
1685, -0.75, 1.25, 2
1686, -0.25, 1.25, 2
1687, 0.25, 1.25, 2
1688, 0.75, 1.25, 2
1689, 1.25, 1.25, 2
1690, 1.625, 1.25, 2
1691, 1.875, 1.25, 2
1692, 2, 1.25, 2
1693, -2, 1.625, 2
1694, -1.875, 1.625, 2
1695, -1.625, 1.625, 2
1696, -1.25, 1.625, 2
1697, -0.75, 1.625, 2
1698, -0.25, 1.625, 2
1699, 0.25, 1.625, 2
1700, 0.75, 1.625, 2
1701, 1.25, 1.625, 2
1702, 1.625, 1.625, 2
1703, 1.875, 1.625, 2
1704, 2, 1.625, 2
1705, -2, 1.875, 2
1706, -1.875, 1.875, 2
1707, -1.625, 1.875, 2
1708, -1.25, 1.875, 2
1709, -0.75, 1.875, 2
1710, -0.25, 1.875, 2
1711, 0.25, 1.875, 2
1712, 0.75, 1.875, 2
1713, 1.25, 1.875, 2
1714, 1.625, 1.875, 2
1715, 1.875, 1.875, 2
1716, 2, 1.875, 2
1717, -2, 2, 2
1718, -1.875, 2, 2
1719, -1.625, 2, 2
1720, -1.25, 2, 2
1721, -0.75, 2, 2
1722, -0.25, 2, 2
1723, 0.25, 2, 2
1724, 0.75, 2, 2
1725, 1.25, 2, 2
1726, 1.625, 2, 2
1727, 1.875, 2, 2
1728, 2, 2, 2
**
*USER ELEMENT, NODES=125, TYPE=U3, PROPERTIES=23, COORDINATES=3
1, 2, 3
**
*ELEMENT, TYPE=U3, ELSET=ELSET1
1,
1,2,3,4,5,
13,14,15,16,17,
25,26,27,28,29,
37,38,39,40,41,
49,50,51,52,53,
145,146,147,148,149,
157,158,159,160,161,
169,170,171,172,173,
181,182,183,184,185,
193,194,195,196,197,
289,290,291,292,293,
301,302,303,304,305,
313,314,315,316,317,
325,326,327,328,329,
337,338,339,340,341,
433,434,435,436,437,
445,446,447,448,449,
457,458,459,460,461,
469,470,471,472,473,
481,482,483,484,485,
577,578,579,580,581,
589,590,591,592,593,
601,602,603,604,605,
613,614,615,616,617,
625,626,627,628,629
2,
2,3,4,5,6,
14,15,16,17,18,
26,27,28,29,30,
38,39,40,41,42,
50,51,52,53,54,
146,147,148,149,150,
158,159,160,161,162,
170,171,172,173,174,
182,183,184,185,186,
194,195,196,197,198,
290,291,292,293,294,
302,303,304,305,306,
314,315,316,317,318,
326,327,328,329,330,
338,339,340,341,342,
434,435,436,437,438,
446,447,448,449,450,
458,459,460,461,462,
470,471,472,473,474,
482,483,484,485,486,
578,579,580,581,582,
590,591,592,593,594,
602,603,604,605,606,
614,615,616,617,618,
626,627,628,629,630
3,
3,4,5,6,7,
15,16,17,18,19,
27,28,29,30,31,
39,40,41,42,43,
51,52,53,54,55,
147,148,149,150,151,
159,160,161,162,163,
171,172,173,174,175,
183,184,185,186,187,
195,196,197,198,199,
291,292,293,294,295,
303,304,305,306,307,
315,316,317,318,319,
327,328,329,330,331,
339,340,341,342,343,
435,436,437,438,439,
447,448,449,450,451,
459,460,461,462,463,
471,472,473,474,475,
483,484,485,486,487,
579,580,581,582,583,
591,592,593,594,595,
603,604,605,606,607,
615,616,617,618,619,
627,628,629,630,631
4,
4,5,6,7,8,
16,17,18,19,20,
28,29,30,31,32,
40,41,42,43,44,
52,53,54,55,56,
148,149,150,151,152,
160,161,162,163,164,
172,173,174,175,176,
184,185,186,187,188,
196,197,198,199,200,
292,293,294,295,296,
304,305,306,307,308,
316,317,318,319,320,
328,329,330,331,332,
340,341,342,343,344,
436,437,438,439,440,
448,449,450,451,452,
460,461,462,463,464,
472,473,474,475,476,
484,485,486,487,488,
580,581,582,583,584,
592,593,594,595,596,
604,605,606,607,608,
616,617,618,619,620,
628,629,630,631,632
5,
5,6,7,8,9,
17,18,19,20,21,
29,30,31,32,33,
41,42,43,44,45,
53,54,55,56,57,
149,150,151,152,153,
161,162,163,164,165,
173,174,175,176,177,
185,186,187,188,189,
197,198,199,200,201,
293,294,295,296,297,
305,306,307,308,309,
317,318,319,320,321,
329,330,331,332,333,
341,342,343,344,345,
437,438,439,440,441,
449,450,451,452,453,
461,462,463,464,465,
473,474,475,476,477,
485,486,487,488,489,
581,582,583,584,585,
593,594,595,596,597,
605,606,607,608,609,
617,618,619,620,621,
629,630,631,632,633
6,
6,7,8,9,10,
18,19,20,21,22,
30,31,32,33,34,
42,43,44,45,46,
54,55,56,57,58,
150,151,152,153,154,
162,163,164,165,166,
174,175,176,177,178,
186,187,188,189,190,
198,199,200,201,202,
294,295,296,297,298,
306,307,308,309,310,
318,319,320,321,322,
330,331,332,333,334,
342,343,344,345,346,
438,439,440,441,442,
450,451,452,453,454,
462,463,464,465,466,
474,475,476,477,478,
486,487,488,489,490,
582,583,584,585,586,
594,595,596,597,598,
606,607,608,609,610,
618,619,620,621,622,
630,631,632,633,634
7,
7,8,9,10,11,
19,20,21,22,23,
31,32,33,34,35,
43,44,45,46,47,
55,56,57,58,59,
151,152,153,154,155,
163,164,165,166,167,
175,176,177,178,179,
187,188,189,190,191,
199,200,201,202,203,
295,296,297,298,299,
307,308,309,310,311,
319,320,321,322,323,
331,332,333,334,335,
343,344,345,346,347,
439,440,441,442,443,
451,452,453,454,455,
463,464,465,466,467,
475,476,477,478,479,
487,488,489,490,491,
583,584,585,586,587,
595,596,597,598,599,
607,608,609,610,611,
619,620,621,622,623,
631,632,633,634,635
8,
8,9,10,11,12,
20,21,22,23,24,
32,33,34,35,36,
44,45,46,47,48,
56,57,58,59,60,
152,153,154,155,156,
164,165,166,167,168,
176,177,178,179,180,
188,189,190,191,192,
200,201,202,203,204,
296,297,298,299,300,
308,309,310,311,312,
320,321,322,323,324,
332,333,334,335,336,
344,345,346,347,348,
440,441,442,443,444,
452,453,454,455,456,
464,465,466,467,468,
476,477,478,479,480,
488,489,490,491,492,
584,585,586,587,588,
596,597,598,599,600,
608,609,610,611,612,
620,621,622,623,624,
632,633,634,635,636
9,
13,14,15,16,17,
25,26,27,28,29,
37,38,39,40,41,
49,50,51,52,53,
61,62,63,64,65,
157,158,159,160,161,
169,170,171,172,173,
181,182,183,184,185,
193,194,195,196,197,
205,206,207,208,209,
301,302,303,304,305,
313,314,315,316,317,
325,326,327,328,329,
337,338,339,340,341,
349,350,351,352,353,
445,446,447,448,449,
457,458,459,460,461,
469,470,471,472,473,
481,482,483,484,485,
493,494,495,496,497,
589,590,591,592,593,
601,602,603,604,605,
613,614,615,616,617,
625,626,627,628,629,
637,638,639,640,641
10,
14,15,16,17,18,
26,27,28,29,30,
38,39,40,41,42,
50,51,52,53,54,
62,63,64,65,66,
158,159,160,161,162,
170,171,172,173,174,
182,183,184,185,186,
194,195,196,197,198,
206,207,208,209,210,
302,303,304,305,306,
314,315,316,317,318,
326,327,328,329,330,
338,339,340,341,342,
350,351,352,353,354,
446,447,448,449,450,
458,459,460,461,462,
470,471,472,473,474,
482,483,484,485,486,
494,495,496,497,498,
590,591,592,593,594,
602,603,604,605,606,
614,615,616,617,618,
626,627,628,629,630,
638,639,640,641,642
11,
15,16,17,18,19,
27,28,29,30,31,
39,40,41,42,43,
51,52,53,54,55,
63,64,65,66,67,
159,160,161,162,163,
171,172,173,174,175,
183,184,185,186,187,
195,196,197,198,199,
207,208,209,210,211,
303,304,305,306,307,
315,316,317,318,319,
327,328,329,330,331,
339,340,341,342,343,
351,352,353,354,355,
447,448,449,450,451,
459,460,461,462,463,
471,472,473,474,475,
483,484,485,486,487,
495,496,497,498,499,
591,592,593,594,595,
603,604,605,606,607,
615,616,617,618,619,
627,628,629,630,631,
639,640,641,642,643
12,
16,17,18,19,20,
28,29,30,31,32,
40,41,42,43,44,
52,53,54,55,56,
64,65,66,67,68,
160,161,162,163,164,
172,173,174,175,176,
184,185,186,187,188,
196,197,198,199,200,
208,209,210,211,212,
304,305,306,307,308,
316,317,318,319,320,
328,329,330,331,332,
340,341,342,343,344,
352,353,354,355,356,
448,449,450,451,452,
460,461,462,463,464,
472,473,474,475,476,
484,485,486,487,488,
496,497,498,499,500,
592,593,594,595,596,
604,605,606,607,608,
616,617,618,619,620,
628,629,630,631,632,
640,641,642,643,644
13,
17,18,19,20,21,
29,30,31,32,33,
41,42,43,44,45,
53,54,55,56,57,
65,66,67,68,69,
161,162,163,164,165,
173,174,175,176,177,
185,186,187,188,189,
197,198,199,200,201,
209,210,211,212,213,
305,306,307,308,309,
317,318,319,320,321,
329,330,331,332,333,
341,342,343,344,345,
353,354,355,356,357,
449,450,451,452,453,
461,462,463,464,465,
473,474,475,476,477,
485,486,487,488,489,
497,498,499,500,501,
593,594,595,596,597,
605,606,607,608,609,
617,618,619,620,621,
629,630,631,632,633,
641,642,643,644,645
14,
18,19,20,21,22,
30,31,32,33,34,
42,43,44,45,46,
54,55,56,57,58,
66,67,68,69,70,
162,163,164,165,166,
174,175,176,177,178,
186,187,188,189,190,
198,199,200,201,202,
210,211,212,213,214,
306,307,308,309,310,
318,319,320,321,322,
330,331,332,333,334,
342,343,344,345,346,
354,355,356,357,358,
450,451,452,453,454,
462,463,464,465,466,
474,475,476,477,478,
486,487,488,489,490,
498,499,500,501,502,
594,595,596,597,598,
606,607,608,609,610,
618,619,620,621,622,
630,631,632,633,634,
642,643,644,645,646
15,
19,20,21,22,23,
31,32,33,34,35,
43,44,45,46,47,
55,56,57,58,59,
67,68,69,70,71,
163,164,165,166,167,
175,176,177,178,179,
187,188,189,190,191,
199,200,201,202,203,
211,212,213,214,215,
307,308,309,310,311,
319,320,321,322,323,
331,332,333,334,335,
343,344,345,346,347,
355,356,357,358,359,
451,452,453,454,455,
463,464,465,466,467,
475,476,477,478,479,
487,488,489,490,491,
499,500,501,502,503,
595,596,597,598,599,
607,608,609,610,611,
619,620,621,622,623,
631,632,633,634,635,
643,644,645,646,647
16,
20,21,22,23,24,
32,33,34,35,36,
44,45,46,47,48,
56,57,58,59,60,
68,69,70,71,72,
164,165,166,167,168,
176,177,178,179,180,
188,189,190,191,192,
200,201,202,203,204,
212,213,214,215,216,
308,309,310,311,312,
320,321,322,323,324,
332,333,334,335,336,
344,345,346,347,348,
356,357,358,359,360,
452,453,454,455,456,
464,465,466,467,468,
476,477,478,479,480,
488,489,490,491,492,
500,501,502,503,504,
596,597,598,599,600,
608,609,610,611,612,
620,621,622,623,624,
632,633,634,635,636,
644,645,646,647,648
17,
25,26,27,28,29,
37,38,39,40,41,
49,50,51,52,53,
61,62,63,64,65,
73,74,75,76,77,
169,170,171,172,173,
181,182,183,184,185,
193,194,195,196,197,
205,206,207,208,209,
217,218,219,220,221,
313,314,315,316,317,
325,326,327,328,329,
337,338,339,340,341,
349,350,351,352,353,
361,362,363,364,365,
457,458,459,460,461,
469,470,471,472,473,
481,482,483,484,485,
493,494,495,496,497,
505,506,507,508,509,
601,602,603,604,605,
613,614,615,616,617,
625,626,627,628,629,
637,638,639,640,641,
649,650,651,652,653
18,
26,27,28,29,30,
38,39,40,41,42,
50,51,52,53,54,
62,63,64,65,66,
74,75,76,77,78,
170,171,172,173,174,
182,183,184,185,186,
194,195,196,197,198,
206,207,208,209,210,
218,219,220,221,222,
314,315,316,317,318,
326,327,328,329,330,
338,339,340,341,342,
350,351,352,353,354,
362,363,364,365,366,
458,459,460,461,462,
470,471,472,473,474,
482,483,484,485,486,
494,495,496,497,498,
506,507,508,509,510,
602,603,604,605,606,
614,615,616,617,618,
626,627,628,629,630,
638,639,640,641,642,
650,651,652,653,654
19,
27,28,29,30,31,
39,40,41,42,43,
51,52,53,54,55,
63,64,65,66,67,
75,76,77,78,79,
171,172,173,174,175,
183,184,185,186,187,
195,196,197,198,199,
207,208,209,210,211,
219,220,221,222,223,
315,316,317,318,319,
327,328,329,330,331,
339,340,341,342,343,
351,352,353,354,355,
363,364,365,366,367,
459,460,461,462,463,
471,472,473,474,475,
483,484,485,486,487,
495,496,497,498,499,
507,508,509,510,511,
603,604,605,606,607,
615,616,617,618,619,
627,628,629,630,631,
639,640,641,642,643,
651,652,653,654,655
20,
28,29,30,31,32,
40,41,42,43,44,
52,53,54,55,56,
64,65,66,67,68,
76,77,78,79,80,
172,173,174,175,176,
184,185,186,187,188,
196,197,198,199,200,
208,209,210,211,212,
220,221,222,223,224,
316,317,318,319,320,
328,329,330,331,332,
340,341,342,343,344,
352,353,354,355,356,
364,365,366,367,368,
460,461,462,463,464,
472,473,474,475,476,
484,485,486,487,488,
496,497,498,499,500,
508,509,510,511,512,
604,605,606,607,608,
616,617,618,619,620,
628,629,630,631,632,
640,641,642,643,644,
652,653,654,655,656
21,
29,30,31,32,33,
41,42,43,44,45,
53,54,55,56,57,
65,66,67,68,69,
77,78,79,80,81,
173,174,175,176,177,
185,186,187,188,189,
197,198,199,200,201,
209,210,211,212,213,
221,222,223,224,225,
317,318,319,320,321,
329,330,331,332,333,
341,342,343,344,345,
353,354,355,356,357,
365,366,367,368,369,
461,462,463,464,465,
473,474,475,476,477,
485,486,487,488,489,
497,498,499,500,501,
509,510,511,512,513,
605,606,607,608,609,
617,618,619,620,621,
629,630,631,632,633,
641,642,643,644,645,
653,654,655,656,657
22,
30,31,32,33,34,
42,43,44,45,46,
54,55,56,57,58,
66,67,68,69,70,
78,79,80,81,82,
174,175,176,177,178,
186,187,188,189,190,
198,199,200,201,202,
210,211,212,213,214,
222,223,224,225,226,
318,319,320,321,322,
330,331,332,333,334,
342,343,344,345,346,
354,355,356,357,358,
366,367,368,369,370,
462,463,464,465,466,
474,475,476,477,478,
486,487,488,489,490,
498,499,500,501,502,
510,511,512,513,514,
606,607,608,609,610,
618,619,620,621,622,
630,631,632,633,634,
642,643,644,645,646,
654,655,656,657,658
23,
31,32,33,34,35,
43,44,45,46,47,
55,56,57,58,59,
67,68,69,70,71,
79,80,81,82,83,
175,176,177,178,179,
187,188,189,190,191,
199,200,201,202,203,
211,212,213,214,215,
223,224,225,226,227,
319,320,321,322,323,
331,332,333,334,335,
343,344,345,346,347,
355,356,357,358,359,
367,368,369,370,371,
463,464,465,466,467,
475,476,477,478,479,
487,488,489,490,491,
499,500,501,502,503,
511,512,513,514,515,
607,608,609,610,611,
619,620,621,622,623,
631,632,633,634,635,
643,644,645,646,647,
655,656,657,658,659
24,
32,33,34,35,36,
44,45,46,47,48,
56,57,58,59,60,
68,69,70,71,72,
80,81,82,83,84,
176,177,178,179,180,
188,189,190,191,192,
200,201,202,203,204,
212,213,214,215,216,
224,225,226,227,228,
320,321,322,323,324,
332,333,334,335,336,
344,345,346,347,348,
356,357,358,359,360,
368,369,370,371,372,
464,465,466,467,468,
476,477,478,479,480,
488,489,490,491,492,
500,501,502,503,504,
512,513,514,515,516,
608,609,610,611,612,
620,621,622,623,624,
632,633,634,635,636,
644,645,646,647,648,
656,657,658,659,660
25,
37,38,39,40,41,
49,50,51,52,53,
61,62,63,64,65,
73,74,75,76,77,
85,86,87,88,89,
181,182,183,184,185,
193,194,195,196,197,
205,206,207,208,209,
217,218,219,220,221,
229,230,231,232,233,
325,326,327,328,329,
337,338,339,340,341,
349,350,351,352,353,
361,362,363,364,365,
373,374,375,376,377,
469,470,471,472,473,
481,482,483,484,485,
493,494,495,496,497,
505,506,507,508,509,
517,518,519,520,521,
613,614,615,616,617,
625,626,627,628,629,
637,638,639,640,641,
649,650,651,652,653,
661,662,663,664,665
26,
38,39,40,41,42,
50,51,52,53,54,
62,63,64,65,66,
74,75,76,77,78,
86,87,88,89,90,
182,183,184,185,186,
194,195,196,197,198,
206,207,208,209,210,
218,219,220,221,222,
230,231,232,233,234,
326,327,328,329,330,
338,339,340,341,342,
350,351,352,353,354,
362,363,364,365,366,
374,375,376,377,378,
470,471,472,473,474,
482,483,484,485,486,
494,495,496,497,498,
506,507,508,509,510,
518,519,520,521,522,
614,615,616,617,618,
626,627,628,629,630,
638,639,640,641,642,
650,651,652,653,654,
662,663,664,665,666
27,
39,40,41,42,43,
51,52,53,54,55,
63,64,65,66,67,
75,76,77,78,79,
87,88,89,90,91,
183,184,185,186,187,
195,196,197,198,199,
207,208,209,210,211,
219,220,221,222,223,
231,232,233,234,235,
327,328,329,330,331,
339,340,341,342,343,
351,352,353,354,355,
363,364,365,366,367,
375,376,377,378,379,
471,472,473,474,475,
483,484,485,486,487,
495,496,497,498,499,
507,508,509,510,511,
519,520,521,522,523,
615,616,617,618,619,
627,628,629,630,631,
639,640,641,642,643,
651,652,653,654,655,
663,664,665,666,667
28,
40,41,42,43,44,
52,53,54,55,56,
64,65,66,67,68,
76,77,78,79,80,
88,89,90,91,92,
184,185,186,187,188,
196,197,198,199,200,
208,209,210,211,212,
220,221,222,223,224,
232,233,234,235,236,
328,329,330,331,332,
340,341,342,343,344,
352,353,354,355,356,
364,365,366,367,368,
376,377,378,379,380,
472,473,474,475,476,
484,485,486,487,488,
496,497,498,499,500,
508,509,510,511,512,
520,521,522,523,524,
616,617,618,619,620,
628,629,630,631,632,
640,641,642,643,644,
652,653,654,655,656,
664,665,666,667,668
29,
41,42,43,44,45,
53,54,55,56,57,
65,66,67,68,69,
77,78,79,80,81,
89,90,91,92,93,
185,186,187,188,189,
197,198,199,200,201,
209,210,211,212,213,
221,222,223,224,225,
233,234,235,236,237,
329,330,331,332,333,
341,342,343,344,345,
353,354,355,356,357,
365,366,367,368,369,
377,378,379,380,381,
473,474,475,476,477,
485,486,487,488,489,
497,498,499,500,501,
509,510,511,512,513,
521,522,523,524,525,
617,618,619,620,621,
629,630,631,632,633,
641,642,643,644,645,
653,654,655,656,657,
665,666,667,668,669
30,
42,43,44,45,46,
54,55,56,57,58,
66,67,68,69,70,
78,79,80,81,82,
90,91,92,93,94,
186,187,188,189,190,
198,199,200,201,202,
210,211,212,213,214,
222,223,224,225,226,
234,235,236,237,238,
330,331,332,333,334,
342,343,344,345,346,
354,355,356,357,358,
366,367,368,369,370,
378,379,380,381,382,
474,475,476,477,478,
486,487,488,489,490,
498,499,500,501,502,
510,511,512,513,514,
522,523,524,525,526,
618,619,620,621,622,
630,631,632,633,634,
642,643,644,645,646,
654,655,656,657,658,
666,667,668,669,670
31,
43,44,45,46,47,
55,56,57,58,59,
67,68,69,70,71,
79,80,81,82,83,
91,92,93,94,95,
187,188,189,190,191,
199,200,201,202,203,
211,212,213,214,215,
223,224,225,226,227,
235,236,237,238,239,
331,332,333,334,335,
343,344,345,346,347,
355,356,357,358,359,
367,368,369,370,371,
379,380,381,382,383,
475,476,477,478,479,
487,488,489,490,491,
499,500,501,502,503,
511,512,513,514,515,
523,524,525,526,527,
619,620,621,622,623,
631,632,633,634,635,
643,644,645,646,647,
655,656,657,658,659,
667,668,669,670,671
32,
44,45,46,47,48,
56,57,58,59,60,
68,69,70,71,72,
80,81,82,83,84,
92,93,94,95,96,
188,189,190,191,192,
200,201,202,203,204,
212,213,214,215,216,
224,225,226,227,228,
236,237,238,239,240,
332,333,334,335,336,
344,345,346,347,348,
356,357,358,359,360,
368,369,370,371,372,
380,381,382,383,384,
476,477,478,479,480,
488,489,490,491,492,
500,501,502,503,504,
512,513,514,515,516,
524,525,526,527,528,
620,621,622,623,624,
632,633,634,635,636,
644,645,646,647,648,
656,657,658,659,660,
668,669,670,671,672
33,
49,50,51,52,53,
61,62,63,64,65,
73,74,75,76,77,
85,86,87,88,89,
97,98,99,100,101,
193,194,195,196,197,
205,206,207,208,209,
217,218,219,220,221,
229,230,231,232,233,
241,242,243,244,245,
337,338,339,340,341,
349,350,351,352,353,
361,362,363,364,365,
373,374,375,376,377,
385,386,387,388,389,
481,482,483,484,485,
493,494,495,496,497,
505,506,507,508,509,
517,518,519,520,521,
529,530,531,532,533,
625,626,627,628,629,
637,638,639,640,641,
649,650,651,652,653,
661,662,663,664,665,
673,674,675,676,677
34,
50,51,52,53,54,
62,63,64,65,66,
74,75,76,77,78,
86,87,88,89,90,
98,99,100,101,102,
194,195,196,197,198,
206,207,208,209,210,
218,219,220,221,222,
230,231,232,233,234,
242,243,244,245,246,
338,339,340,341,342,
350,351,352,353,354,
362,363,364,365,366,
374,375,376,377,378,
386,387,388,389,390,
482,483,484,485,486,
494,495,496,497,498,
506,507,508,509,510,
518,519,520,521,522,
530,531,532,533,534,
626,627,628,629,630,
638,639,640,641,642,
650,651,652,653,654,
662,663,664,665,666,
674,675,676,677,678
35,
51,52,53,54,55,
63,64,65,66,67,
75,76,77,78,79,
87,88,89,90,91,
99,100,101,102,103,
195,196,197,198,199,
207,208,209,210,211,
219,220,221,222,223,
231,232,233,234,235,
243,244,245,246,247,
339,340,341,342,343,
351,352,353,354,355,
363,364,365,366,367,
375,376,377,378,379,
387,388,389,390,391,
483,484,485,486,487,
495,496,497,498,499,
507,508,509,510,511,
519,520,521,522,523,
531,532,533,534,535,
627,628,629,630,631,
639,640,641,642,643,
651,652,653,654,655,
663,664,665,666,667,
675,676,677,678,679
36,
52,53,54,55,56,
64,65,66,67,68,
76,77,78,79,80,
88,89,90,91,92,
100,101,102,103,104,
196,197,198,199,200,
208,209,210,211,212,
220,221,222,223,224,
232,233,234,235,236,
244,245,246,247,248,
340,341,342,343,344,
352,353,354,355,356,
364,365,366,367,368,
376,377,378,379,380,
388,389,390,391,392,
484,485,486,487,488,
496,497,498,499,500,
508,509,510,511,512,
520,521,522,523,524,
532,533,534,535,536,
628,629,630,631,632,
640,641,642,643,644,
652,653,654,655,656,
664,665,666,667,668,
676,677,678,679,680
37,
53,54,55,56,57,
65,66,67,68,69,
77,78,79,80,81,
89,90,91,92,93,
101,102,103,104,105,
197,198,199,200,201,
209,210,211,212,213,
221,222,223,224,225,
233,234,235,236,237,
245,246,247,248,249,
341,342,343,344,345,
353,354,355,356,357,
365,366,367,368,369,
377,378,379,380,381,
389,390,391,392,393,
485,486,487,488,489,
497,498,499,500,501,
509,510,511,512,513,
521,522,523,524,525,
533,534,535,536,537,
629,630,631,632,633,
641,642,643,644,645,
653,654,655,656,657,
665,666,667,668,669,
677,678,679,680,681
38,
54,55,56,57,58,
66,67,68,69,70,
78,79,80,81,82,
90,91,92,93,94,
102,103,104,105,106,
198,199,200,201,202,
210,211,212,213,214,
222,223,224,225,226,
234,235,236,237,238,
246,247,248,249,250,
342,343,344,345,346,
354,355,356,357,358,
366,367,368,369,370,
378,379,380,381,382,
390,391,392,393,394,
486,487,488,489,490,
498,499,500,501,502,
510,511,512,513,514,
522,523,524,525,526,
534,535,536,537,538,
630,631,632,633,634,
642,643,644,645,646,
654,655,656,657,658,
666,667,668,669,670,
678,679,680,681,682
39,
55,56,57,58,59,
67,68,69,70,71,
79,80,81,82,83,
91,92,93,94,95,
103,104,105,106,107,
199,200,201,202,203,
211,212,213,214,215,
223,224,225,226,227,
235,236,237,238,239,
247,248,249,250,251,
343,344,345,346,347,
355,356,357,358,359,
367,368,369,370,371,
379,380,381,382,383,
391,392,393,394,395,
487,488,489,490,491,
499,500,501,502,503,
511,512,513,514,515,
523,524,525,526,527,
535,536,537,538,539,
631,632,633,634,635,
643,644,645,646,647,
655,656,657,658,659,
667,668,669,670,671,
679,680,681,682,683
40,
56,57,58,59,60,
68,69,70,71,72,
80,81,82,83,84,
92,93,94,95,96,
104,105,106,107,108,
200,201,202,203,204,
212,213,214,215,216,
224,225,226,227,228,
236,237,238,239,240,
248,249,250,251,252,
344,345,346,347,348,
356,357,358,359,360,
368,369,370,371,372,
380,381,382,383,384,
392,393,394,395,396,
488,489,490,491,492,
500,501,502,503,504,
512,513,514,515,516,
524,525,526,527,528,
536,537,538,539,540,
632,633,634,635,636,
644,645,646,647,648,
656,657,658,659,660,
668,669,670,671,672,
680,681,682,683,684
41,
61,62,63,64,65,
73,74,75,76,77,
85,86,87,88,89,
97,98,99,100,101,
109,110,111,112,113,
205,206,207,208,209,
217,218,219,220,221,
229,230,231,232,233,
241,242,243,244,245,
253,254,255,256,257,
349,350,351,352,353,
361,362,363,364,365,
373,374,375,376,377,
385,386,387,388,389,
397,398,399,400,401,
493,494,495,496,497,
505,506,507,508,509,
517,518,519,520,521,
529,530,531,532,533,
541,542,543,544,545,
637,638,639,640,641,
649,650,651,652,653,
661,662,663,664,665,
673,674,675,676,677,
685,686,687,688,689
42,
62,63,64,65,66,
74,75,76,77,78,
86,87,88,89,90,
98,99,100,101,102,
110,111,112,113,114,
206,207,208,209,210,
218,219,220,221,222,
230,231,232,233,234,
242,243,244,245,246,
254,255,256,257,258,
350,351,352,353,354,
362,363,364,365,366,
374,375,376,377,378,
386,387,388,389,390,
398,399,400,401,402,
494,495,496,497,498,
506,507,508,509,510,
518,519,520,521,522,
530,531,532,533,534,
542,543,544,545,546,
638,639,640,641,642,
650,651,652,653,654,
662,663,664,665,666,
674,675,676,677,678,
686,687,688,689,690
43,
63,64,65,66,67,
75,76,77,78,79,
87,88,89,90,91,
99,100,101,102,103,
111,112,113,114,115,
207,208,209,210,211,
219,220,221,222,223,
231,232,233,234,235,
243,244,245,246,247,
255,256,257,258,259,
351,352,353,354,355,
363,364,365,366,367,
375,376,377,378,379,
387,388,389,390,391,
399,400,401,402,403,
495,496,497,498,499,
507,508,509,510,511,
519,520,521,522,523,
531,532,533,534,535,
543,544,545,546,547,
639,640,641,642,643,
651,652,653,654,655,
663,664,665,666,667,
675,676,677,678,679,
687,688,689,690,691
44,
64,65,66,67,68,
76,77,78,79,80,
88,89,90,91,92,
100,101,102,103,104,
112,113,114,115,116,
208,209,210,211,212,
220,221,222,223,224,
232,233,234,235,236,
244,245,246,247,248,
256,257,258,259,260,
352,353,354,355,356,
364,365,366,367,368,
376,377,378,379,380,
388,389,390,391,392,
400,401,402,403,404,
496,497,498,499,500,
508,509,510,511,512,
520,521,522,523,524,
532,533,534,535,536,
544,545,546,547,548,
640,641,642,643,644,
652,653,654,655,656,
664,665,666,667,668,
676,677,678,679,680,
688,689,690,691,692
45,
65,66,67,68,69,
77,78,79,80,81,
89,90,91,92,93,
101,102,103,104,105,
113,114,115,116,117,
209,210,211,212,213,
221,222,223,224,225,
233,234,235,236,237,
245,246,247,248,249,
257,258,259,260,261,
353,354,355,356,357,
365,366,367,368,369,
377,378,379,380,381,
389,390,391,392,393,
401,402,403,404,405,
497,498,499,500,501,
509,510,511,512,513,
521,522,523,524,525,
533,534,535,536,537,
545,546,547,548,549,
641,642,643,644,645,
653,654,655,656,657,
665,666,667,668,669,
677,678,679,680,681,
689,690,691,692,693
46,
66,67,68,69,70,
78,79,80,81,82,
90,91,92,93,94,
102,103,104,105,106,
114,115,116,117,118,
210,211,212,213,214,
222,223,224,225,226,
234,235,236,237,238,
246,247,248,249,250,
258,259,260,261,262,
354,355,356,357,358,
366,367,368,369,370,
378,379,380,381,382,
390,391,392,393,394,
402,403,404,405,406,
498,499,500,501,502,
510,511,512,513,514,
522,523,524,525,526,
534,535,536,537,538,
546,547,548,549,550,
642,643,644,645,646,
654,655,656,657,658,
666,667,668,669,670,
678,679,680,681,682,
690,691,692,693,694
47,
67,68,69,70,71,
79,80,81,82,83,
91,92,93,94,95,
103,104,105,106,107,
115,116,117,118,119,
211,212,213,214,215,
223,224,225,226,227,
235,236,237,238,239,
247,248,249,250,251,
259,260,261,262,263,
355,356,357,358,359,
367,368,369,370,371,
379,380,381,382,383,
391,392,393,394,395,
403,404,405,406,407,
499,500,501,502,503,
511,512,513,514,515,
523,524,525,526,527,
535,536,537,538,539,
547,548,549,550,551,
643,644,645,646,647,
655,656,657,658,659,
667,668,669,670,671,
679,680,681,682,683,
691,692,693,694,695
48,
68,69,70,71,72,
80,81,82,83,84,
92,93,94,95,96,
104,105,106,107,108,
116,117,118,119,120,
212,213,214,215,216,
224,225,226,227,228,
236,237,238,239,240,
248,249,250,251,252,
260,261,262,263,264,
356,357,358,359,360,
368,369,370,371,372,
380,381,382,383,384,
392,393,394,395,396,
404,405,406,407,408,
500,501,502,503,504,
512,513,514,515,516,
524,525,526,527,528,
536,537,538,539,540,
548,549,550,551,552,
644,645,646,647,648,
656,657,658,659,660,
668,669,670,671,672,
680,681,682,683,684,
692,693,694,695,696
49,
73,74,75,76,77,
85,86,87,88,89,
97,98,99,100,101,
109,110,111,112,113,
121,122,123,124,125,
217,218,219,220,221,
229,230,231,232,233,
241,242,243,244,245,
253,254,255,256,257,
265,266,267,268,269,
361,362,363,364,365,
373,374,375,376,377,
385,386,387,388,389,
397,398,399,400,401,
409,410,411,412,413,
505,506,507,508,509,
517,518,519,520,521,
529,530,531,532,533,
541,542,543,544,545,
553,554,555,556,557,
649,650,651,652,653,
661,662,663,664,665,
673,674,675,676,677,
685,686,687,688,689,
697,698,699,700,701
50,
74,75,76,77,78,
86,87,88,89,90,
98,99,100,101,102,
110,111,112,113,114,
122,123,124,125,126,
218,219,220,221,222,
230,231,232,233,234,
242,243,244,245,246,
254,255,256,257,258,
266,267,268,269,270,
362,363,364,365,366,
374,375,376,377,378,
386,387,388,389,390,
398,399,400,401,402,
410,411,412,413,414,
506,507,508,509,510,
518,519,520,521,522,
530,531,532,533,534,
542,543,544,545,546,
554,555,556,557,558,
650,651,652,653,654,
662,663,664,665,666,
674,675,676,677,678,
686,687,688,689,690,
698,699,700,701,702
51,
75,76,77,78,79,
87,88,89,90,91,
99,100,101,102,103,
111,112,113,114,115,
123,124,125,126,127,
219,220,221,222,223,
231,232,233,234,235,
243,244,245,246,247,
255,256,257,258,259,
267,268,269,270,271,
363,364,365,366,367,
375,376,377,378,379,
387,388,389,390,391,
399,400,401,402,403,
411,412,413,414,415,
507,508,509,510,511,
519,520,521,522,523,
531,532,533,534,535,
543,544,545,546,547,
555,556,557,558,559,
651,652,653,654,655,
663,664,665,666,667,
675,676,677,678,679,
687,688,689,690,691,
699,700,701,702,703
52,
76,77,78,79,80,
88,89,90,91,92,
100,101,102,103,104,
112,113,114,115,116,
124,125,126,127,128,
220,221,222,223,224,
232,233,234,235,236,
244,245,246,247,248,
256,257,258,259,260,
268,269,270,271,272,
364,365,366,367,368,
376,377,378,379,380,
388,389,390,391,392,
400,401,402,403,404,
412,413,414,415,416,
508,509,510,511,512,
520,521,522,523,524,
532,533,534,535,536,
544,545,546,547,548,
556,557,558,559,560,
652,653,654,655,656,
664,665,666,667,668,
676,677,678,679,680,
688,689,690,691,692,
700,701,702,703,704
53,
77,78,79,80,81,
89,90,91,92,93,
101,102,103,104,105,
113,114,115,116,117,
125,126,127,128,129,
221,222,223,224,225,
233,234,235,236,237,
245,246,247,248,249,
257,258,259,260,261,
269,270,271,272,273,
365,366,367,368,369,
377,378,379,380,381,
389,390,391,392,393,
401,402,403,404,405,
413,414,415,416,417,
509,510,511,512,513,
521,522,523,524,525,
533,534,535,536,537,
545,546,547,548,549,
557,558,559,560,561,
653,654,655,656,657,
665,666,667,668,669,
677,678,679,680,681,
689,690,691,692,693,
701,702,703,704,705
54,
78,79,80,81,82,
90,91,92,93,94,
102,103,104,105,106,
114,115,116,117,118,
126,127,128,129,130,
222,223,224,225,226,
234,235,236,237,238,
246,247,248,249,250,
258,259,260,261,262,
270,271,272,273,274,
366,367,368,369,370,
378,379,380,381,382,
390,391,392,393,394,
402,403,404,405,406,
414,415,416,417,418,
510,511,512,513,514,
522,523,524,525,526,
534,535,536,537,538,
546,547,548,549,550,
558,559,560,561,562,
654,655,656,657,658,
666,667,668,669,670,
678,679,680,681,682,
690,691,692,693,694,
702,703,704,705,706
55,
79,80,81,82,83,
91,92,93,94,95,
103,104,105,106,107,
115,116,117,118,119,
127,128,129,130,131,
223,224,225,226,227,
235,236,237,238,239,
247,248,249,250,251,
259,260,261,262,263,
271,272,273,274,275,
367,368,369,370,371,
379,380,381,382,383,
391,392,393,394,395,
403,404,405,406,407,
415,416,417,418,419,
511,512,513,514,515,
523,524,525,526,527,
535,536,537,538,539,
547,548,549,550,551,
559,560,561,562,563,
655,656,657,658,659,
667,668,669,670,671,
679,680,681,682,683,
691,692,693,694,695,
703,704,705,706,707
56,
80,81,82,83,84,
92,93,94,95,96,
104,105,106,107,108,
116,117,118,119,120,
128,129,130,131,132,
224,225,226,227,228,
236,237,238,239,240,
248,249,250,251,252,
260,261,262,263,264,
272,273,274,275,276,
368,369,370,371,372,
380,381,382,383,384,
392,393,394,395,396,
404,405,406,407,408,
416,417,418,419,420,
512,513,514,515,516,
524,525,526,527,528,
536,537,538,539,540,
548,549,550,551,552,
560,561,562,563,564,
656,657,658,659,660,
668,669,670,671,672,
680,681,682,683,684,
692,693,694,695,696,
704,705,706,707,708
57,
85,86,87,88,89,
97,98,99,100,101,
109,110,111,112,113,
121,122,123,124,125,
133,134,135,136,137,
229,230,231,232,233,
241,242,243,244,245,
253,254,255,256,257,
265,266,267,268,269,
277,278,279,280,281,
373,374,375,376,377,
385,386,387,388,389,
397,398,399,400,401,
409,410,411,412,413,
421,422,423,424,425,
517,518,519,520,521,
529,530,531,532,533,
541,542,543,544,545,
553,554,555,556,557,
565,566,567,568,569,
661,662,663,664,665,
673,674,675,676,677,
685,686,687,688,689,
697,698,699,700,701,
709,710,711,712,713
58,
86,87,88,89,90,
98,99,100,101,102,
110,111,112,113,114,
122,123,124,125,126,
134,135,136,137,138,
230,231,232,233,234,
242,243,244,245,246,
254,255,256,257,258,
266,267,268,269,270,
278,279,280,281,282,
374,375,376,377,378,
386,387,388,389,390,
398,399,400,401,402,
410,411,412,413,414,
422,423,424,425,426,
518,519,520,521,522,
530,531,532,533,534,
542,543,544,545,546,
554,555,556,557,558,
566,567,568,569,570,
662,663,664,665,666,
674,675,676,677,678,
686,687,688,689,690,
698,699,700,701,702,
710,711,712,713,714
59,
87,88,89,90,91,
99,100,101,102,103,
111,112,113,114,115,
123,124,125,126,127,
135,136,137,138,139,
231,232,233,234,235,
243,244,245,246,247,
255,256,257,258,259,
267,268,269,270,271,
279,280,281,282,283,
375,376,377,378,379,
387,388,389,390,391,
399,400,401,402,403,
411,412,413,414,415,
423,424,425,426,427,
519,520,521,522,523,
531,532,533,534,535,
543,544,545,546,547,
555,556,557,558,559,
567,568,569,570,571,
663,664,665,666,667,
675,676,677,678,679,
687,688,689,690,691,
699,700,701,702,703,
711,712,713,714,715
60,
88,89,90,91,92,
100,101,102,103,104,
112,113,114,115,116,
124,125,126,127,128,
136,137,138,139,140,
232,233,234,235,236,
244,245,246,247,248,
256,257,258,259,260,
268,269,270,271,272,
280,281,282,283,284,
376,377,378,379,380,
388,389,390,391,392,
400,401,402,403,404,
412,413,414,415,416,
424,425,426,427,428,
520,521,522,523,524,
532,533,534,535,536,
544,545,546,547,548,
556,557,558,559,560,
568,569,570,571,572,
664,665,666,667,668,
676,677,678,679,680,
688,689,690,691,692,
700,701,702,703,704,
712,713,714,715,716
61,
89,90,91,92,93,
101,102,103,104,105,
113,114,115,116,117,
125,126,127,128,129,
137,138,139,140,141,
233,234,235,236,237,
245,246,247,248,249,
257,258,259,260,261,
269,270,271,272,273,
281,282,283,284,285,
377,378,379,380,381,
389,390,391,392,393,
401,402,403,404,405,
413,414,415,416,417,
425,426,427,428,429,
521,522,523,524,525,
533,534,535,536,537,
545,546,547,548,549,
557,558,559,560,561,
569,570,571,572,573,
665,666,667,668,669,
677,678,679,680,681,
689,690,691,692,693,
701,702,703,704,705,
713,714,715,716,717
62,
90,91,92,93,94,
102,103,104,105,106,
114,115,116,117,118,
126,127,128,129,130,
138,139,140,141,142,
234,235,236,237,238,
246,247,248,249,250,
258,259,260,261,262,
270,271,272,273,274,
282,283,284,285,286,
378,379,380,381,382,
390,391,392,393,394,
402,403,404,405,406,
414,415,416,417,418,
426,427,428,429,430,
522,523,524,525,526,
534,535,536,537,538,
546,547,548,549,550,
558,559,560,561,562,
570,571,572,573,574,
666,667,668,669,670,
678,679,680,681,682,
690,691,692,693,694,
702,703,704,705,706,
714,715,716,717,718
63,
91,92,93,94,95,
103,104,105,106,107,
115,116,117,118,119,
127,128,129,130,131,
139,140,141,142,143,
235,236,237,238,239,
247,248,249,250,251,
259,260,261,262,263,
271,272,273,274,275,
283,284,285,286,287,
379,380,381,382,383,
391,392,393,394,395,
403,404,405,406,407,
415,416,417,418,419,
427,428,429,430,431,
523,524,525,526,527,
535,536,537,538,539,
547,548,549,550,551,
559,560,561,562,563,
571,572,573,574,575,
667,668,669,670,671,
679,680,681,682,683,
691,692,693,694,695,
703,704,705,706,707,
715,716,717,718,719
64,
92,93,94,95,96,
104,105,106,107,108,
116,117,118,119,120,
128,129,130,131,132,
140,141,142,143,144,
236,237,238,239,240,
248,249,250,251,252,
260,261,262,263,264,
272,273,274,275,276,
284,285,286,287,288,
380,381,382,383,384,
392,393,394,395,396,
404,405,406,407,408,
416,417,418,419,420,
428,429,430,431,432,
524,525,526,527,528,
536,537,538,539,540,
548,549,550,551,552,
560,561,562,563,564,
572,573,574,575,576,
668,669,670,671,672,
680,681,682,683,684,
692,693,694,695,696,
704,705,706,707,708,
716,717,718,719,720
65,
145,146,147,148,149,
157,158,159,160,161,
169,170,171,172,173,
181,182,183,184,185,
193,194,195,196,197,
289,290,291,292,293,
301,302,303,304,305,
313,314,315,316,317,
325,326,327,328,329,
337,338,339,340,341,
433,434,435,436,437,
445,446,447,448,449,
457,458,459,460,461,
469,470,471,472,473,
481,482,483,484,485,
577,578,579,580,581,
589,590,591,592,593,
601,602,603,604,605,
613,614,615,616,617,
625,626,627,628,629,
721,722,723,724,725,
733,734,735,736,737,
745,746,747,748,749,
757,758,759,760,761,
769,770,771,772,773
66,
146,147,148,149,150,
158,159,160,161,162,
170,171,172,173,174,
182,183,184,185,186,
194,195,196,197,198,
290,291,292,293,294,
302,303,304,305,306,
314,315,316,317,318,
326,327,328,329,330,
338,339,340,341,342,
434,435,436,437,438,
446,447,448,449,450,
458,459,460,461,462,
470,471,472,473,474,
482,483,484,485,486,
578,579,580,581,582,
590,591,592,593,594,
602,603,604,605,606,
614,615,616,617,618,
626,627,628,629,630,
722,723,724,725,726,
734,735,736,737,738,
746,747,748,749,750,
758,759,760,761,762,
770,771,772,773,774
67,
147,148,149,150,151,
159,160,161,162,163,
171,172,173,174,175,
183,184,185,186,187,
195,196,197,198,199,
291,292,293,294,295,
303,304,305,306,307,
315,316,317,318,319,
327,328,329,330,331,
339,340,341,342,343,
435,436,437,438,439,
447,448,449,450,451,
459,460,461,462,463,
471,472,473,474,475,
483,484,485,486,487,
579,580,581,582,583,
591,592,593,594,595,
603,604,605,606,607,
615,616,617,618,619,
627,628,629,630,631,
723,724,725,726,727,
735,736,737,738,739,
747,748,749,750,751,
759,760,761,762,763,
771,772,773,774,775
68,
148,149,150,151,152,
160,161,162,163,164,
172,173,174,175,176,
184,185,186,187,188,
196,197,198,199,200,
292,293,294,295,296,
304,305,306,307,308,
316,317,318,319,320,
328,329,330,331,332,
340,341,342,343,344,
436,437,438,439,440,
448,449,450,451,452,
460,461,462,463,464,
472,473,474,475,476,
484,485,486,487,488,
580,581,582,583,584,
592,593,594,595,596,
604,605,606,607,608,
616,617,618,619,620,
628,629,630,631,632,
724,725,726,727,728,
736,737,738,739,740,
748,749,750,751,752,
760,761,762,763,764,
772,773,774,775,776
69,
149,150,151,152,153,
161,162,163,164,165,
173,174,175,176,177,
185,186,187,188,189,
197,198,199,200,201,
293,294,295,296,297,
305,306,307,308,309,
317,318,319,320,321,
329,330,331,332,333,
341,342,343,344,345,
437,438,439,440,441,
449,450,451,452,453,
461,462,463,464,465,
473,474,475,476,477,
485,486,487,488,489,
581,582,583,584,585,
593,594,595,596,597,
605,606,607,608,609,
617,618,619,620,621,
629,630,631,632,633,
725,726,727,728,729,
737,738,739,740,741,
749,750,751,752,753,
761,762,763,764,765,
773,774,775,776,777
70,
150,151,152,153,154,
162,163,164,165,166,
174,175,176,177,178,
186,187,188,189,190,
198,199,200,201,202,
294,295,296,297,298,
306,307,308,309,310,
318,319,320,321,322,
330,331,332,333,334,
342,343,344,345,346,
438,439,440,441,442,
450,451,452,453,454,
462,463,464,465,466,
474,475,476,477,478,
486,487,488,489,490,
582,583,584,585,586,
594,595,596,597,598,
606,607,608,609,610,
618,619,620,621,622,
630,631,632,633,634,
726,727,728,729,730,
738,739,740,741,742,
750,751,752,753,754,
762,763,764,765,766,
774,775,776,777,778
71,
151,152,153,154,155,
163,164,165,166,167,
175,176,177,178,179,
187,188,189,190,191,
199,200,201,202,203,
295,296,297,298,299,
307,308,309,310,311,
319,320,321,322,323,
331,332,333,334,335,
343,344,345,346,347,
439,440,441,442,443,
451,452,453,454,455,
463,464,465,466,467,
475,476,477,478,479,
487,488,489,490,491,
583,584,585,586,587,
595,596,597,598,599,
607,608,609,610,611,
619,620,621,622,623,
631,632,633,634,635,
727,728,729,730,731,
739,740,741,742,743,
751,752,753,754,755,
763,764,765,766,767,
775,776,777,778,779
72,
152,153,154,155,156,
164,165,166,167,168,
176,177,178,179,180,
188,189,190,191,192,
200,201,202,203,204,
296,297,298,299,300,
308,309,310,311,312,
320,321,322,323,324,
332,333,334,335,336,
344,345,346,347,348,
440,441,442,443,444,
452,453,454,455,456,
464,465,466,467,468,
476,477,478,479,480,
488,489,490,491,492,
584,585,586,587,588,
596,597,598,599,600,
608,609,610,611,612,
620,621,622,623,624,
632,633,634,635,636,
728,729,730,731,732,
740,741,742,743,744,
752,753,754,755,756,
764,765,766,767,768,
776,777,778,779,780
73,
157,158,159,160,161,
169,170,171,172,173,
181,182,183,184,185,
193,194,195,196,197,
205,206,207,208,209,
301,302,303,304,305,
313,314,315,316,317,
325,326,327,328,329,
337,338,339,340,341,
349,350,351,352,353,
445,446,447,448,449,
457,458,459,460,461,
469,470,471,472,473,
481,482,483,484,485,
493,494,495,496,497,
589,590,591,592,593,
601,602,603,604,605,
613,614,615,616,617,
625,626,627,628,629,
637,638,639,640,641,
733,734,735,736,737,
745,746,747,748,749,
757,758,759,760,761,
769,770,771,772,773,
781,782,783,784,785
74,
158,159,160,161,162,
170,171,172,173,174,
182,183,184,185,186,
194,195,196,197,198,
206,207,208,209,210,
302,303,304,305,306,
314,315,316,317,318,
326,327,328,329,330,
338,339,340,341,342,
350,351,352,353,354,
446,447,448,449,450,
458,459,460,461,462,
470,471,472,473,474,
482,483,484,485,486,
494,495,496,497,498,
590,591,592,593,594,
602,603,604,605,606,
614,615,616,617,618,
626,627,628,629,630,
638,639,640,641,642,
734,735,736,737,738,
746,747,748,749,750,
758,759,760,761,762,
770,771,772,773,774,
782,783,784,785,786
75,
159,160,161,162,163,
171,172,173,174,175,
183,184,185,186,187,
195,196,197,198,199,
207,208,209,210,211,
303,304,305,306,307,
315,316,317,318,319,
327,328,329,330,331,
339,340,341,342,343,
351,352,353,354,355,
447,448,449,450,451,
459,460,461,462,463,
471,472,473,474,475,
483,484,485,486,487,
495,496,497,498,499,
591,592,593,594,595,
603,604,605,606,607,
615,616,617,618,619,
627,628,629,630,631,
639,640,641,642,643,
735,736,737,738,739,
747,748,749,750,751,
759,760,761,762,763,
771,772,773,774,775,
783,784,785,786,787
76,
160,161,162,163,164,
172,173,174,175,176,
184,185,186,187,188,
196,197,198,199,200,
208,209,210,211,212,
304,305,306,307,308,
316,317,318,319,320,
328,329,330,331,332,
340,341,342,343,344,
352,353,354,355,356,
448,449,450,451,452,
460,461,462,463,464,
472,473,474,475,476,
484,485,486,487,488,
496,497,498,499,500,
592,593,594,595,596,
604,605,606,607,608,
616,617,618,619,620,
628,629,630,631,632,
640,641,642,643,644,
736,737,738,739,740,
748,749,750,751,752,
760,761,762,763,764,
772,773,774,775,776,
784,785,786,787,788
77,
161,162,163,164,165,
173,174,175,176,177,
185,186,187,188,189,
197,198,199,200,201,
209,210,211,212,213,
305,306,307,308,309,
317,318,319,320,321,
329,330,331,332,333,
341,342,343,344,345,
353,354,355,356,357,
449,450,451,452,453,
461,462,463,464,465,
473,474,475,476,477,
485,486,487,488,489,
497,498,499,500,501,
593,594,595,596,597,
605,606,607,608,609,
617,618,619,620,621,
629,630,631,632,633,
641,642,643,644,645,
737,738,739,740,741,
749,750,751,752,753,
761,762,763,764,765,
773,774,775,776,777,
785,786,787,788,789
78,
162,163,164,165,166,
174,175,176,177,178,
186,187,188,189,190,
198,199,200,201,202,
210,211,212,213,214,
306,307,308,309,310,
318,319,320,321,322,
330,331,332,333,334,
342,343,344,345,346,
354,355,356,357,358,
450,451,452,453,454,
462,463,464,465,466,
474,475,476,477,478,
486,487,488,489,490,
498,499,500,501,502,
594,595,596,597,598,
606,607,608,609,610,
618,619,620,621,622,
630,631,632,633,634,
642,643,644,645,646,
738,739,740,741,742,
750,751,752,753,754,
762,763,764,765,766,
774,775,776,777,778,
786,787,788,789,790
79,
163,164,165,166,167,
175,176,177,178,179,
187,188,189,190,191,
199,200,201,202,203,
211,212,213,214,215,
307,308,309,310,311,
319,320,321,322,323,
331,332,333,334,335,
343,344,345,346,347,
355,356,357,358,359,
451,452,453,454,455,
463,464,465,466,467,
475,476,477,478,479,
487,488,489,490,491,
499,500,501,502,503,
595,596,597,598,599,
607,608,609,610,611,
619,620,621,622,623,
631,632,633,634,635,
643,644,645,646,647,
739,740,741,742,743,
751,752,753,754,755,
763,764,765,766,767,
775,776,777,778,779,
787,788,789,790,791
80,
164,165,166,167,168,
176,177,178,179,180,
188,189,190,191,192,
200,201,202,203,204,
212,213,214,215,216,
308,309,310,311,312,
320,321,322,323,324,
332,333,334,335,336,
344,345,346,347,348,
356,357,358,359,360,
452,453,454,455,456,
464,465,466,467,468,
476,477,478,479,480,
488,489,490,491,492,
500,501,502,503,504,
596,597,598,599,600,
608,609,610,611,612,
620,621,622,623,624,
632,633,634,635,636,
644,645,646,647,648,
740,741,742,743,744,
752,753,754,755,756,
764,765,766,767,768,
776,777,778,779,780,
788,789,790,791,792
81,
169,170,171,172,173,
181,182,183,184,185,
193,194,195,196,197,
205,206,207,208,209,
217,218,219,220,221,
313,314,315,316,317,
325,326,327,328,329,
337,338,339,340,341,
349,350,351,352,353,
361,362,363,364,365,
457,458,459,460,461,
469,470,471,472,473,
481,482,483,484,485,
493,494,495,496,497,
505,506,507,508,509,
601,602,603,604,605,
613,614,615,616,617,
625,626,627,628,629,
637,638,639,640,641,
649,650,651,652,653,
745,746,747,748,749,
757,758,759,760,761,
769,770,771,772,773,
781,782,783,784,785,
793,794,795,796,797
82,
170,171,172,173,174,
182,183,184,185,186,
194,195,196,197,198,
206,207,208,209,210,
218,219,220,221,222,
314,315,316,317,318,
326,327,328,329,330,
338,339,340,341,342,
350,351,352,353,354,
362,363,364,365,366,
458,459,460,461,462,
470,471,472,473,474,
482,483,484,485,486,
494,495,496,497,498,
506,507,508,509,510,
602,603,604,605,606,
614,615,616,617,618,
626,627,628,629,630,
638,639,640,641,642,
650,651,652,653,654,
746,747,748,749,750,
758,759,760,761,762,
770,771,772,773,774,
782,783,784,785,786,
794,795,796,797,798
83,
171,172,173,174,175,
183,184,185,186,187,
195,196,197,198,199,
207,208,209,210,211,
219,220,221,222,223,
315,316,317,318,319,
327,328,329,330,331,
339,340,341,342,343,
351,352,353,354,355,
363,364,365,366,367,
459,460,461,462,463,
471,472,473,474,475,
483,484,485,486,487,
495,496,497,498,499,
507,508,509,510,511,
603,604,605,606,607,
615,616,617,618,619,
627,628,629,630,631,
639,640,641,642,643,
651,652,653,654,655,
747,748,749,750,751,
759,760,761,762,763,
771,772,773,774,775,
783,784,785,786,787,
795,796,797,798,799
84,
172,173,174,175,176,
184,185,186,187,188,
196,197,198,199,200,
208,209,210,211,212,
220,221,222,223,224,
316,317,318,319,320,
328,329,330,331,332,
340,341,342,343,344,
352,353,354,355,356,
364,365,366,367,368,
460,461,462,463,464,
472,473,474,475,476,
484,485,486,487,488,
496,497,498,499,500,
508,509,510,511,512,
604,605,606,607,608,
616,617,618,619,620,
628,629,630,631,632,
640,641,642,643,644,
652,653,654,655,656,
748,749,750,751,752,
760,761,762,763,764,
772,773,774,775,776,
784,785,786,787,788,
796,797,798,799,800
85,
173,174,175,176,177,
185,186,187,188,189,
197,198,199,200,201,
209,210,211,212,213,
221,222,223,224,225,
317,318,319,320,321,
329,330,331,332,333,
341,342,343,344,345,
353,354,355,356,357,
365,366,367,368,369,
461,462,463,464,465,
473,474,475,476,477,
485,486,487,488,489,
497,498,499,500,501,
509,510,511,512,513,
605,606,607,608,609,
617,618,619,620,621,
629,630,631,632,633,
641,642,643,644,645,
653,654,655,656,657,
749,750,751,752,753,
761,762,763,764,765,
773,774,775,776,777,
785,786,787,788,789,
797,798,799,800,801
86,
174,175,176,177,178,
186,187,188,189,190,
198,199,200,201,202,
210,211,212,213,214,
222,223,224,225,226,
318,319,320,321,322,
330,331,332,333,334,
342,343,344,345,346,
354,355,356,357,358,
366,367,368,369,370,
462,463,464,465,466,
474,475,476,477,478,
486,487,488,489,490,
498,499,500,501,502,
510,511,512,513,514,
606,607,608,609,610,
618,619,620,621,622,
630,631,632,633,634,
642,643,644,645,646,
654,655,656,657,658,
750,751,752,753,754,
762,763,764,765,766,
774,775,776,777,778,
786,787,788,789,790,
798,799,800,801,802
87,
175,176,177,178,179,
187,188,189,190,191,
199,200,201,202,203,
211,212,213,214,215,
223,224,225,226,227,
319,320,321,322,323,
331,332,333,334,335,
343,344,345,346,347,
355,356,357,358,359,
367,368,369,370,371,
463,464,465,466,467,
475,476,477,478,479,
487,488,489,490,491,
499,500,501,502,503,
511,512,513,514,515,
607,608,609,610,611,
619,620,621,622,623,
631,632,633,634,635,
643,644,645,646,647,
655,656,657,658,659,
751,752,753,754,755,
763,764,765,766,767,
775,776,777,778,779,
787,788,789,790,791,
799,800,801,802,803
88,
176,177,178,179,180,
188,189,190,191,192,
200,201,202,203,204,
212,213,214,215,216,
224,225,226,227,228,
320,321,322,323,324,
332,333,334,335,336,
344,345,346,347,348,
356,357,358,359,360,
368,369,370,371,372,
464,465,466,467,468,
476,477,478,479,480,
488,489,490,491,492,
500,501,502,503,504,
512,513,514,515,516,
608,609,610,611,612,
620,621,622,623,624,
632,633,634,635,636,
644,645,646,647,648,
656,657,658,659,660,
752,753,754,755,756,
764,765,766,767,768,
776,777,778,779,780,
788,789,790,791,792,
800,801,802,803,804
89,
181,182,183,184,185,
193,194,195,196,197,
205,206,207,208,209,
217,218,219,220,221,
229,230,231,232,233,
325,326,327,328,329,
337,338,339,340,341,
349,350,351,352,353,
361,362,363,364,365,
373,374,375,376,377,
469,470,471,472,473,
481,482,483,484,485,
493,494,495,496,497,
505,506,507,508,509,
517,518,519,520,521,
613,614,615,616,617,
625,626,627,628,629,
637,638,639,640,641,
649,650,651,652,653,
661,662,663,664,665,
757,758,759,760,761,
769,770,771,772,773,
781,782,783,784,785,
793,794,795,796,797,
805,806,807,808,809
90,
182,183,184,185,186,
194,195,196,197,198,
206,207,208,209,210,
218,219,220,221,222,
230,231,232,233,234,
326,327,328,329,330,
338,339,340,341,342,
350,351,352,353,354,
362,363,364,365,366,
374,375,376,377,378,
470,471,472,473,474,
482,483,484,485,486,
494,495,496,497,498,
506,507,508,509,510,
518,519,520,521,522,
614,615,616,617,618,
626,627,628,629,630,
638,639,640,641,642,
650,651,652,653,654,
662,663,664,665,666,
758,759,760,761,762,
770,771,772,773,774,
782,783,784,785,786,
794,795,796,797,798,
806,807,808,809,810
91,
183,184,185,186,187,
195,196,197,198,199,
207,208,209,210,211,
219,220,221,222,223,
231,232,233,234,235,
327,328,329,330,331,
339,340,341,342,343,
351,352,353,354,355,
363,364,365,366,367,
375,376,377,378,379,
471,472,473,474,475,
483,484,485,486,487,
495,496,497,498,499,
507,508,509,510,511,
519,520,521,522,523,
615,616,617,618,619,
627,628,629,630,631,
639,640,641,642,643,
651,652,653,654,655,
663,664,665,666,667,
759,760,761,762,763,
771,772,773,774,775,
783,784,785,786,787,
795,796,797,798,799,
807,808,809,810,811
92,
184,185,186,187,188,
196,197,198,199,200,
208,209,210,211,212,
220,221,222,223,224,
232,233,234,235,236,
328,329,330,331,332,
340,341,342,343,344,
352,353,354,355,356,
364,365,366,367,368,
376,377,378,379,380,
472,473,474,475,476,
484,485,486,487,488,
496,497,498,499,500,
508,509,510,511,512,
520,521,522,523,524,
616,617,618,619,620,
628,629,630,631,632,
640,641,642,643,644,
652,653,654,655,656,
664,665,666,667,668,
760,761,762,763,764,
772,773,774,775,776,
784,785,786,787,788,
796,797,798,799,800,
808,809,810,811,812
93,
185,186,187,188,189,
197,198,199,200,201,
209,210,211,212,213,
221,222,223,224,225,
233,234,235,236,237,
329,330,331,332,333,
341,342,343,344,345,
353,354,355,356,357,
365,366,367,368,369,
377,378,379,380,381,
473,474,475,476,477,
485,486,487,488,489,
497,498,499,500,501,
509,510,511,512,513,
521,522,523,524,525,
617,618,619,620,621,
629,630,631,632,633,
641,642,643,644,645,
653,654,655,656,657,
665,666,667,668,669,
761,762,763,764,765,
773,774,775,776,777,
785,786,787,788,789,
797,798,799,800,801,
809,810,811,812,813
94,
186,187,188,189,190,
198,199,200,201,202,
210,211,212,213,214,
222,223,224,225,226,
234,235,236,237,238,
330,331,332,333,334,
342,343,344,345,346,
354,355,356,357,358,
366,367,368,369,370,
378,379,380,381,382,
474,475,476,477,478,
486,487,488,489,490,
498,499,500,501,502,
510,511,512,513,514,
522,523,524,525,526,
618,619,620,621,622,
630,631,632,633,634,
642,643,644,645,646,
654,655,656,657,658,
666,667,668,669,670,
762,763,764,765,766,
774,775,776,777,778,
786,787,788,789,790,
798,799,800,801,802,
810,811,812,813,814
95,
187,188,189,190,191,
199,200,201,202,203,
211,212,213,214,215,
223,224,225,226,227,
235,236,237,238,239,
331,332,333,334,335,
343,344,345,346,347,
355,356,357,358,359,
367,368,369,370,371,
379,380,381,382,383,
475,476,477,478,479,
487,488,489,490,491,
499,500,501,502,503,
511,512,513,514,515,
523,524,525,526,527,
619,620,621,622,623,
631,632,633,634,635,
643,644,645,646,647,
655,656,657,658,659,
667,668,669,670,671,
763,764,765,766,767,
775,776,777,778,779,
787,788,789,790,791,
799,800,801,802,803,
811,812,813,814,815
96,
188,189,190,191,192,
200,201,202,203,204,
212,213,214,215,216,
224,225,226,227,228,
236,237,238,239,240,
332,333,334,335,336,
344,345,346,347,348,
356,357,358,359,360,
368,369,370,371,372,
380,381,382,383,384,
476,477,478,479,480,
488,489,490,491,492,
500,501,502,503,504,
512,513,514,515,516,
524,525,526,527,528,
620,621,622,623,624,
632,633,634,635,636,
644,645,646,647,648,
656,657,658,659,660,
668,669,670,671,672,
764,765,766,767,768,
776,777,778,779,780,
788,789,790,791,792,
800,801,802,803,804,
812,813,814,815,816
97,
193,194,195,196,197,
205,206,207,208,209,
217,218,219,220,221,
229,230,231,232,233,
241,242,243,244,245,
337,338,339,340,341,
349,350,351,352,353,
361,362,363,364,365,
373,374,375,376,377,
385,386,387,388,389,
481,482,483,484,485,
493,494,495,496,497,
505,506,507,508,509,
517,518,519,520,521,
529,530,531,532,533,
625,626,627,628,629,
637,638,639,640,641,
649,650,651,652,653,
661,662,663,664,665,
673,674,675,676,677,
769,770,771,772,773,
781,782,783,784,785,
793,794,795,796,797,
805,806,807,808,809,
817,818,819,820,821
98,
194,195,196,197,198,
206,207,208,209,210,
218,219,220,221,222,
230,231,232,233,234,
242,243,244,245,246,
338,339,340,341,342,
350,351,352,353,354,
362,363,364,365,366,
374,375,376,377,378,
386,387,388,389,390,
482,483,484,485,486,
494,495,496,497,498,
506,507,508,509,510,
518,519,520,521,522,
530,531,532,533,534,
626,627,628,629,630,
638,639,640,641,642,
650,651,652,653,654,
662,663,664,665,666,
674,675,676,677,678,
770,771,772,773,774,
782,783,784,785,786,
794,795,796,797,798,
806,807,808,809,810,
818,819,820,821,822
99,
195,196,197,198,199,
207,208,209,210,211,
219,220,221,222,223,
231,232,233,234,235,
243,244,245,246,247,
339,340,341,342,343,
351,352,353,354,355,
363,364,365,366,367,
375,376,377,378,379,
387,388,389,390,391,
483,484,485,486,487,
495,496,497,498,499,
507,508,509,510,511,
519,520,521,522,523,
531,532,533,534,535,
627,628,629,630,631,
639,640,641,642,643,
651,652,653,654,655,
663,664,665,666,667,
675,676,677,678,679,
771,772,773,774,775,
783,784,785,786,787,
795,796,797,798,799,
807,808,809,810,811,
819,820,821,822,823
100,
196,197,198,199,200,
208,209,210,211,212,
220,221,222,223,224,
232,233,234,235,236,
244,245,246,247,248,
340,341,342,343,344,
352,353,354,355,356,
364,365,366,367,368,
376,377,378,379,380,
388,389,390,391,392,
484,485,486,487,488,
496,497,498,499,500,
508,509,510,511,512,
520,521,522,523,524,
532,533,534,535,536,
628,629,630,631,632,
640,641,642,643,644,
652,653,654,655,656,
664,665,666,667,668,
676,677,678,679,680,
772,773,774,775,776,
784,785,786,787,788,
796,797,798,799,800,
808,809,810,811,812,
820,821,822,823,824
101,
197,198,199,200,201,
209,210,211,212,213,
221,222,223,224,225,
233,234,235,236,237,
245,246,247,248,249,
341,342,343,344,345,
353,354,355,356,357,
365,366,367,368,369,
377,378,379,380,381,
389,390,391,392,393,
485,486,487,488,489,
497,498,499,500,501,
509,510,511,512,513,
521,522,523,524,525,
533,534,535,536,537,
629,630,631,632,633,
641,642,643,644,645,
653,654,655,656,657,
665,666,667,668,669,
677,678,679,680,681,
773,774,775,776,777,
785,786,787,788,789,
797,798,799,800,801,
809,810,811,812,813,
821,822,823,824,825
102,
198,199,200,201,202,
210,211,212,213,214,
222,223,224,225,226,
234,235,236,237,238,
246,247,248,249,250,
342,343,344,345,346,
354,355,356,357,358,
366,367,368,369,370,
378,379,380,381,382,
390,391,392,393,394,
486,487,488,489,490,
498,499,500,501,502,
510,511,512,513,514,
522,523,524,525,526,
534,535,536,537,538,
630,631,632,633,634,
642,643,644,645,646,
654,655,656,657,658,
666,667,668,669,670,
678,679,680,681,682,
774,775,776,777,778,
786,787,788,789,790,
798,799,800,801,802,
810,811,812,813,814,
822,823,824,825,826
103,
199,200,201,202,203,
211,212,213,214,215,
223,224,225,226,227,
235,236,237,238,239,
247,248,249,250,251,
343,344,345,346,347,
355,356,357,358,359,
367,368,369,370,371,
379,380,381,382,383,
391,392,393,394,395,
487,488,489,490,491,
499,500,501,502,503,
511,512,513,514,515,
523,524,525,526,527,
535,536,537,538,539,
631,632,633,634,635,
643,644,645,646,647,
655,656,657,658,659,
667,668,669,670,671,
679,680,681,682,683,
775,776,777,778,779,
787,788,789,790,791,
799,800,801,802,803,
811,812,813,814,815,
823,824,825,826,827
104,
200,201,202,203,204,
212,213,214,215,216,
224,225,226,227,228,
236,237,238,239,240,
248,249,250,251,252,
344,345,346,347,348,
356,357,358,359,360,
368,369,370,371,372,
380,381,382,383,384,
392,393,394,395,396,
488,489,490,491,492,
500,501,502,503,504,
512,513,514,515,516,
524,525,526,527,528,
536,537,538,539,540,
632,633,634,635,636,
644,645,646,647,648,
656,657,658,659,660,
668,669,670,671,672,
680,681,682,683,684,
776,777,778,779,780,
788,789,790,791,792,
800,801,802,803,804,
812,813,814,815,816,
824,825,826,827,828
105,
205,206,207,208,209,
217,218,219,220,221,
229,230,231,232,233,
241,242,243,244,245,
253,254,255,256,257,
349,350,351,352,353,
361,362,363,364,365,
373,374,375,376,377,
385,386,387,388,389,
397,398,399,400,401,
493,494,495,496,497,
505,506,507,508,509,
517,518,519,520,521,
529,530,531,532,533,
541,542,543,544,545,
637,638,639,640,641,
649,650,651,652,653,
661,662,663,664,665,
673,674,675,676,677,
685,686,687,688,689,
781,782,783,784,785,
793,794,795,796,797,
805,806,807,808,809,
817,818,819,820,821,
829,830,831,832,833
106,
206,207,208,209,210,
218,219,220,221,222,
230,231,232,233,234,
242,243,244,245,246,
254,255,256,257,258,
350,351,352,353,354,
362,363,364,365,366,
374,375,376,377,378,
386,387,388,389,390,
398,399,400,401,402,
494,495,496,497,498,
506,507,508,509,510,
518,519,520,521,522,
530,531,532,533,534,
542,543,544,545,546,
638,639,640,641,642,
650,651,652,653,654,
662,663,664,665,666,
674,675,676,677,678,
686,687,688,689,690,
782,783,784,785,786,
794,795,796,797,798,
806,807,808,809,810,
818,819,820,821,822,
830,831,832,833,834
107,
207,208,209,210,211,
219,220,221,222,223,
231,232,233,234,235,
243,244,245,246,247,
255,256,257,258,259,
351,352,353,354,355,
363,364,365,366,367,
375,376,377,378,379,
387,388,389,390,391,
399,400,401,402,403,
495,496,497,498,499,
507,508,509,510,511,
519,520,521,522,523,
531,532,533,534,535,
543,544,545,546,547,
639,640,641,642,643,
651,652,653,654,655,
663,664,665,666,667,
675,676,677,678,679,
687,688,689,690,691,
783,784,785,786,787,
795,796,797,798,799,
807,808,809,810,811,
819,820,821,822,823,
831,832,833,834,835
108,
208,209,210,211,212,
220,221,222,223,224,
232,233,234,235,236,
244,245,246,247,248,
256,257,258,259,260,
352,353,354,355,356,
364,365,366,367,368,
376,377,378,379,380,
388,389,390,391,392,
400,401,402,403,404,
496,497,498,499,500,
508,509,510,511,512,
520,521,522,523,524,
532,533,534,535,536,
544,545,546,547,548,
640,641,642,643,644,
652,653,654,655,656,
664,665,666,667,668,
676,677,678,679,680,
688,689,690,691,692,
784,785,786,787,788,
796,797,798,799,800,
808,809,810,811,812,
820,821,822,823,824,
832,833,834,835,836
109,
209,210,211,212,213,
221,222,223,224,225,
233,234,235,236,237,
245,246,247,248,249,
257,258,259,260,261,
353,354,355,356,357,
365,366,367,368,369,
377,378,379,380,381,
389,390,391,392,393,
401,402,403,404,405,
497,498,499,500,501,
509,510,511,512,513,
521,522,523,524,525,
533,534,535,536,537,
545,546,547,548,549,
641,642,643,644,645,
653,654,655,656,657,
665,666,667,668,669,
677,678,679,680,681,
689,690,691,692,693,
785,786,787,788,789,
797,798,799,800,801,
809,810,811,812,813,
821,822,823,824,825,
833,834,835,836,837
110,
210,211,212,213,214,
222,223,224,225,226,
234,235,236,237,238,
246,247,248,249,250,
258,259,260,261,262,
354,355,356,357,358,
366,367,368,369,370,
378,379,380,381,382,
390,391,392,393,394,
402,403,404,405,406,
498,499,500,501,502,
510,511,512,513,514,
522,523,524,525,526,
534,535,536,537,538,
546,547,548,549,550,
642,643,644,645,646,
654,655,656,657,658,
666,667,668,669,670,
678,679,680,681,682,
690,691,692,693,694,
786,787,788,789,790,
798,799,800,801,802,
810,811,812,813,814,
822,823,824,825,826,
834,835,836,837,838
111,
211,212,213,214,215,
223,224,225,226,227,
235,236,237,238,239,
247,248,249,250,251,
259,260,261,262,263,
355,356,357,358,359,
367,368,369,370,371,
379,380,381,382,383,
391,392,393,394,395,
403,404,405,406,407,
499,500,501,502,503,
511,512,513,514,515,
523,524,525,526,527,
535,536,537,538,539,
547,548,549,550,551,
643,644,645,646,647,
655,656,657,658,659,
667,668,669,670,671,
679,680,681,682,683,
691,692,693,694,695,
787,788,789,790,791,
799,800,801,802,803,
811,812,813,814,815,
823,824,825,826,827,
835,836,837,838,839
112,
212,213,214,215,216,
224,225,226,227,228,
236,237,238,239,240,
248,249,250,251,252,
260,261,262,263,264,
356,357,358,359,360,
368,369,370,371,372,
380,381,382,383,384,
392,393,394,395,396,
404,405,406,407,408,
500,501,502,503,504,
512,513,514,515,516,
524,525,526,527,528,
536,537,538,539,540,
548,549,550,551,552,
644,645,646,647,648,
656,657,658,659,660,
668,669,670,671,672,
680,681,682,683,684,
692,693,694,695,696,
788,789,790,791,792,
800,801,802,803,804,
812,813,814,815,816,
824,825,826,827,828,
836,837,838,839,840
113,
217,218,219,220,221,
229,230,231,232,233,
241,242,243,244,245,
253,254,255,256,257,
265,266,267,268,269,
361,362,363,364,365,
373,374,375,376,377,
385,386,387,388,389,
397,398,399,400,401,
409,410,411,412,413,
505,506,507,508,509,
517,518,519,520,521,
529,530,531,532,533,
541,542,543,544,545,
553,554,555,556,557,
649,650,651,652,653,
661,662,663,664,665,
673,674,675,676,677,
685,686,687,688,689,
697,698,699,700,701,
793,794,795,796,797,
805,806,807,808,809,
817,818,819,820,821,
829,830,831,832,833,
841,842,843,844,845
114,
218,219,220,221,222,
230,231,232,233,234,
242,243,244,245,246,
254,255,256,257,258,
266,267,268,269,270,
362,363,364,365,366,
374,375,376,377,378,
386,387,388,389,390,
398,399,400,401,402,
410,411,412,413,414,
506,507,508,509,510,
518,519,520,521,522,
530,531,532,533,534,
542,543,544,545,546,
554,555,556,557,558,
650,651,652,653,654,
662,663,664,665,666,
674,675,676,677,678,
686,687,688,689,690,
698,699,700,701,702,
794,795,796,797,798,
806,807,808,809,810,
818,819,820,821,822,
830,831,832,833,834,
842,843,844,845,846
115,
219,220,221,222,223,
231,232,233,234,235,
243,244,245,246,247,
255,256,257,258,259,
267,268,269,270,271,
363,364,365,366,367,
375,376,377,378,379,
387,388,389,390,391,
399,400,401,402,403,
411,412,413,414,415,
507,508,509,510,511,
519,520,521,522,523,
531,532,533,534,535,
543,544,545,546,547,
555,556,557,558,559,
651,652,653,654,655,
663,664,665,666,667,
675,676,677,678,679,
687,688,689,690,691,
699,700,701,702,703,
795,796,797,798,799,
807,808,809,810,811,
819,820,821,822,823,
831,832,833,834,835,
843,844,845,846,847
116,
220,221,222,223,224,
232,233,234,235,236,
244,245,246,247,248,
256,257,258,259,260,
268,269,270,271,272,
364,365,366,367,368,
376,377,378,379,380,
388,389,390,391,392,
400,401,402,403,404,
412,413,414,415,416,
508,509,510,511,512,
520,521,522,523,524,
532,533,534,535,536,
544,545,546,547,548,
556,557,558,559,560,
652,653,654,655,656,
664,665,666,667,668,
676,677,678,679,680,
688,689,690,691,692,
700,701,702,703,704,
796,797,798,799,800,
808,809,810,811,812,
820,821,822,823,824,
832,833,834,835,836,
844,845,846,847,848
117,
221,222,223,224,225,
233,234,235,236,237,
245,246,247,248,249,
257,258,259,260,261,
269,270,271,272,273,
365,366,367,368,369,
377,378,379,380,381,
389,390,391,392,393,
401,402,403,404,405,
413,414,415,416,417,
509,510,511,512,513,
521,522,523,524,525,
533,534,535,536,537,
545,546,547,548,549,
557,558,559,560,561,
653,654,655,656,657,
665,666,667,668,669,
677,678,679,680,681,
689,690,691,692,693,
701,702,703,704,705,
797,798,799,800,801,
809,810,811,812,813,
821,822,823,824,825,
833,834,835,836,837,
845,846,847,848,849
118,
222,223,224,225,226,
234,235,236,237,238,
246,247,248,249,250,
258,259,260,261,262,
270,271,272,273,274,
366,367,368,369,370,
378,379,380,381,382,
390,391,392,393,394,
402,403,404,405,406,
414,415,416,417,418,
510,511,512,513,514,
522,523,524,525,526,
534,535,536,537,538,
546,547,548,549,550,
558,559,560,561,562,
654,655,656,657,658,
666,667,668,669,670,
678,679,680,681,682,
690,691,692,693,694,
702,703,704,705,706,
798,799,800,801,802,
810,811,812,813,814,
822,823,824,825,826,
834,835,836,837,838,
846,847,848,849,850
119,
223,224,225,226,227,
235,236,237,238,239,
247,248,249,250,251,
259,260,261,262,263,
271,272,273,274,275,
367,368,369,370,371,
379,380,381,382,383,
391,392,393,394,395,
403,404,405,406,407,
415,416,417,418,419,
511,512,513,514,515,
523,524,525,526,527,
535,536,537,538,539,
547,548,549,550,551,
559,560,561,562,563,
655,656,657,658,659,
667,668,669,670,671,
679,680,681,682,683,
691,692,693,694,695,
703,704,705,706,707,
799,800,801,802,803,
811,812,813,814,815,
823,824,825,826,827,
835,836,837,838,839,
847,848,849,850,851
120,
224,225,226,227,228,
236,237,238,239,240,
248,249,250,251,252,
260,261,262,263,264,
272,273,274,275,276,
368,369,370,371,372,
380,381,382,383,384,
392,393,394,395,396,
404,405,406,407,408,
416,417,418,419,420,
512,513,514,515,516,
524,525,526,527,528,
536,537,538,539,540,
548,549,550,551,552,
560,561,562,563,564,
656,657,658,659,660,
668,669,670,671,672,
680,681,682,683,684,
692,693,694,695,696,
704,705,706,707,708,
800,801,802,803,804,
812,813,814,815,816,
824,825,826,827,828,
836,837,838,839,840,
848,849,850,851,852
121,
229,230,231,232,233,
241,242,243,244,245,
253,254,255,256,257,
265,266,267,268,269,
277,278,279,280,281,
373,374,375,376,377,
385,386,387,388,389,
397,398,399,400,401,
409,410,411,412,413,
421,422,423,424,425,
517,518,519,520,521,
529,530,531,532,533,
541,542,543,544,545,
553,554,555,556,557,
565,566,567,568,569,
661,662,663,664,665,
673,674,675,676,677,
685,686,687,688,689,
697,698,699,700,701,
709,710,711,712,713,
805,806,807,808,809,
817,818,819,820,821,
829,830,831,832,833,
841,842,843,844,845,
853,854,855,856,857
122,
230,231,232,233,234,
242,243,244,245,246,
254,255,256,257,258,
266,267,268,269,270,
278,279,280,281,282,
374,375,376,377,378,
386,387,388,389,390,
398,399,400,401,402,
410,411,412,413,414,
422,423,424,425,426,
518,519,520,521,522,
530,531,532,533,534,
542,543,544,545,546,
554,555,556,557,558,
566,567,568,569,570,
662,663,664,665,666,
674,675,676,677,678,
686,687,688,689,690,
698,699,700,701,702,
710,711,712,713,714,
806,807,808,809,810,
818,819,820,821,822,
830,831,832,833,834,
842,843,844,845,846,
854,855,856,857,858
123,
231,232,233,234,235,
243,244,245,246,247,
255,256,257,258,259,
267,268,269,270,271,
279,280,281,282,283,
375,376,377,378,379,
387,388,389,390,391,
399,400,401,402,403,
411,412,413,414,415,
423,424,425,426,427,
519,520,521,522,523,
531,532,533,534,535,
543,544,545,546,547,
555,556,557,558,559,
567,568,569,570,571,
663,664,665,666,667,
675,676,677,678,679,
687,688,689,690,691,
699,700,701,702,703,
711,712,713,714,715,
807,808,809,810,811,
819,820,821,822,823,
831,832,833,834,835,
843,844,845,846,847,
855,856,857,858,859
124,
232,233,234,235,236,
244,245,246,247,248,
256,257,258,259,260,
268,269,270,271,272,
280,281,282,283,284,
376,377,378,379,380,
388,389,390,391,392,
400,401,402,403,404,
412,413,414,415,416,
424,425,426,427,428,
520,521,522,523,524,
532,533,534,535,536,
544,545,546,547,548,
556,557,558,559,560,
568,569,570,571,572,
664,665,666,667,668,
676,677,678,679,680,
688,689,690,691,692,
700,701,702,703,704,
712,713,714,715,716,
808,809,810,811,812,
820,821,822,823,824,
832,833,834,835,836,
844,845,846,847,848,
856,857,858,859,860
125,
233,234,235,236,237,
245,246,247,248,249,
257,258,259,260,261,
269,270,271,272,273,
281,282,283,284,285,
377,378,379,380,381,
389,390,391,392,393,
401,402,403,404,405,
413,414,415,416,417,
425,426,427,428,429,
521,522,523,524,525,
533,534,535,536,537,
545,546,547,548,549,
557,558,559,560,561,
569,570,571,572,573,
665,666,667,668,669,
677,678,679,680,681,
689,690,691,692,693,
701,702,703,704,705,
713,714,715,716,717,
809,810,811,812,813,
821,822,823,824,825,
833,834,835,836,837,
845,846,847,848,849,
857,858,859,860,861
126,
234,235,236,237,238,
246,247,248,249,250,
258,259,260,261,262,
270,271,272,273,274,
282,283,284,285,286,
378,379,380,381,382,
390,391,392,393,394,
402,403,404,405,406,
414,415,416,417,418,
426,427,428,429,430,
522,523,524,525,526,
534,535,536,537,538,
546,547,548,549,550,
558,559,560,561,562,
570,571,572,573,574,
666,667,668,669,670,
678,679,680,681,682,
690,691,692,693,694,
702,703,704,705,706,
714,715,716,717,718,
810,811,812,813,814,
822,823,824,825,826,
834,835,836,837,838,
846,847,848,849,850,
858,859,860,861,862
127,
235,236,237,238,239,
247,248,249,250,251,
259,260,261,262,263,
271,272,273,274,275,
283,284,285,286,287,
379,380,381,382,383,
391,392,393,394,395,
403,404,405,406,407,
415,416,417,418,419,
427,428,429,430,431,
523,524,525,526,527,
535,536,537,538,539,
547,548,549,550,551,
559,560,561,562,563,
571,572,573,574,575,
667,668,669,670,671,
679,680,681,682,683,
691,692,693,694,695,
703,704,705,706,707,
715,716,717,718,719,
811,812,813,814,815,
823,824,825,826,827,
835,836,837,838,839,
847,848,849,850,851,
859,860,861,862,863
128,
236,237,238,239,240,
248,249,250,251,252,
260,261,262,263,264,
272,273,274,275,276,
284,285,286,287,288,
380,381,382,383,384,
392,393,394,395,396,
404,405,406,407,408,
416,417,418,419,420,
428,429,430,431,432,
524,525,526,527,528,
536,537,538,539,540,
548,549,550,551,552,
560,561,562,563,564,
572,573,574,575,576,
668,669,670,671,672,
680,681,682,683,684,
692,693,694,695,696,
704,705,706,707,708,
716,717,718,719,720,
812,813,814,815,816,
824,825,826,827,828,
836,837,838,839,840,
848,849,850,851,852,
860,861,862,863,864
129,
289,290,291,292,293,
301,302,303,304,305,
313,314,315,316,317,
325,326,327,328,329,
337,338,339,340,341,
433,434,435,436,437,
445,446,447,448,449,
457,458,459,460,461,
469,470,471,472,473,
481,482,483,484,485,
577,578,579,580,581,
589,590,591,592,593,
601,602,603,604,605,
613,614,615,616,617,
625,626,627,628,629,
721,722,723,724,725,
733,734,735,736,737,
745,746,747,748,749,
757,758,759,760,761,
769,770,771,772,773,
865,866,867,868,869,
877,878,879,880,881,
889,890,891,892,893,
901,902,903,904,905,
913,914,915,916,917
130,
290,291,292,293,294,
302,303,304,305,306,
314,315,316,317,318,
326,327,328,329,330,
338,339,340,341,342,
434,435,436,437,438,
446,447,448,449,450,
458,459,460,461,462,
470,471,472,473,474,
482,483,484,485,486,
578,579,580,581,582,
590,591,592,593,594,
602,603,604,605,606,
614,615,616,617,618,
626,627,628,629,630,
722,723,724,725,726,
734,735,736,737,738,
746,747,748,749,750,
758,759,760,761,762,
770,771,772,773,774,
866,867,868,869,870,
878,879,880,881,882,
890,891,892,893,894,
902,903,904,905,906,
914,915,916,917,918
131,
291,292,293,294,295,
303,304,305,306,307,
315,316,317,318,319,
327,328,329,330,331,
339,340,341,342,343,
435,436,437,438,439,
447,448,449,450,451,
459,460,461,462,463,
471,472,473,474,475,
483,484,485,486,487,
579,580,581,582,583,
591,592,593,594,595,
603,604,605,606,607,
615,616,617,618,619,
627,628,629,630,631,
723,724,725,726,727,
735,736,737,738,739,
747,748,749,750,751,
759,760,761,762,763,
771,772,773,774,775,
867,868,869,870,871,
879,880,881,882,883,
891,892,893,894,895,
903,904,905,906,907,
915,916,917,918,919
132,
292,293,294,295,296,
304,305,306,307,308,
316,317,318,319,320,
328,329,330,331,332,
340,341,342,343,344,
436,437,438,439,440,
448,449,450,451,452,
460,461,462,463,464,
472,473,474,475,476,
484,485,486,487,488,
580,581,582,583,584,
592,593,594,595,596,
604,605,606,607,608,
616,617,618,619,620,
628,629,630,631,632,
724,725,726,727,728,
736,737,738,739,740,
748,749,750,751,752,
760,761,762,763,764,
772,773,774,775,776,
868,869,870,871,872,
880,881,882,883,884,
892,893,894,895,896,
904,905,906,907,908,
916,917,918,919,920
133,
293,294,295,296,297,
305,306,307,308,309,
317,318,319,320,321,
329,330,331,332,333,
341,342,343,344,345,
437,438,439,440,441,
449,450,451,452,453,
461,462,463,464,465,
473,474,475,476,477,
485,486,487,488,489,
581,582,583,584,585,
593,594,595,596,597,
605,606,607,608,609,
617,618,619,620,621,
629,630,631,632,633,
725,726,727,728,729,
737,738,739,740,741,
749,750,751,752,753,
761,762,763,764,765,
773,774,775,776,777,
869,870,871,872,873,
881,882,883,884,885,
893,894,895,896,897,
905,906,907,908,909,
917,918,919,920,921
134,
294,295,296,297,298,
306,307,308,309,310,
318,319,320,321,322,
330,331,332,333,334,
342,343,344,345,346,
438,439,440,441,442,
450,451,452,453,454,
462,463,464,465,466,
474,475,476,477,478,
486,487,488,489,490,
582,583,584,585,586,
594,595,596,597,598,
606,607,608,609,610,
618,619,620,621,622,
630,631,632,633,634,
726,727,728,729,730,
738,739,740,741,742,
750,751,752,753,754,
762,763,764,765,766,
774,775,776,777,778,
870,871,872,873,874,
882,883,884,885,886,
894,895,896,897,898,
906,907,908,909,910,
918,919,920,921,922
135,
295,296,297,298,299,
307,308,309,310,311,
319,320,321,322,323,
331,332,333,334,335,
343,344,345,346,347,
439,440,441,442,443,
451,452,453,454,455,
463,464,465,466,467,
475,476,477,478,479,
487,488,489,490,491,
583,584,585,586,587,
595,596,597,598,599,
607,608,609,610,611,
619,620,621,622,623,
631,632,633,634,635,
727,728,729,730,731,
739,740,741,742,743,
751,752,753,754,755,
763,764,765,766,767,
775,776,777,778,779,
871,872,873,874,875,
883,884,885,886,887,
895,896,897,898,899,
907,908,909,910,911,
919,920,921,922,923
136,
296,297,298,299,300,
308,309,310,311,312,
320,321,322,323,324,
332,333,334,335,336,
344,345,346,347,348,
440,441,442,443,444,
452,453,454,455,456,
464,465,466,467,468,
476,477,478,479,480,
488,489,490,491,492,
584,585,586,587,588,
596,597,598,599,600,
608,609,610,611,612,
620,621,622,623,624,
632,633,634,635,636,
728,729,730,731,732,
740,741,742,743,744,
752,753,754,755,756,
764,765,766,767,768,
776,777,778,779,780,
872,873,874,875,876,
884,885,886,887,888,
896,897,898,899,900,
908,909,910,911,912,
920,921,922,923,924
137,
301,302,303,304,305,
313,314,315,316,317,
325,326,327,328,329,
337,338,339,340,341,
349,350,351,352,353,
445,446,447,448,449,
457,458,459,460,461,
469,470,471,472,473,
481,482,483,484,485,
493,494,495,496,497,
589,590,591,592,593,
601,602,603,604,605,
613,614,615,616,617,
625,626,627,628,629,
637,638,639,640,641,
733,734,735,736,737,
745,746,747,748,749,
757,758,759,760,761,
769,770,771,772,773,
781,782,783,784,785,
877,878,879,880,881,
889,890,891,892,893,
901,902,903,904,905,
913,914,915,916,917,
925,926,927,928,929
138,
302,303,304,305,306,
314,315,316,317,318,
326,327,328,329,330,
338,339,340,341,342,
350,351,352,353,354,
446,447,448,449,450,
458,459,460,461,462,
470,471,472,473,474,
482,483,484,485,486,
494,495,496,497,498,
590,591,592,593,594,
602,603,604,605,606,
614,615,616,617,618,
626,627,628,629,630,
638,639,640,641,642,
734,735,736,737,738,
746,747,748,749,750,
758,759,760,761,762,
770,771,772,773,774,
782,783,784,785,786,
878,879,880,881,882,
890,891,892,893,894,
902,903,904,905,906,
914,915,916,917,918,
926,927,928,929,930
139,
303,304,305,306,307,
315,316,317,318,319,
327,328,329,330,331,
339,340,341,342,343,
351,352,353,354,355,
447,448,449,450,451,
459,460,461,462,463,
471,472,473,474,475,
483,484,485,486,487,
495,496,497,498,499,
591,592,593,594,595,
603,604,605,606,607,
615,616,617,618,619,
627,628,629,630,631,
639,640,641,642,643,
735,736,737,738,739,
747,748,749,750,751,
759,760,761,762,763,
771,772,773,774,775,
783,784,785,786,787,
879,880,881,882,883,
891,892,893,894,895,
903,904,905,906,907,
915,916,917,918,919,
927,928,929,930,931
140,
304,305,306,307,308,
316,317,318,319,320,
328,329,330,331,332,
340,341,342,343,344,
352,353,354,355,356,
448,449,450,451,452,
460,461,462,463,464,
472,473,474,475,476,
484,485,486,487,488,
496,497,498,499,500,
592,593,594,595,596,
604,605,606,607,608,
616,617,618,619,620,
628,629,630,631,632,
640,641,642,643,644,
736,737,738,739,740,
748,749,750,751,752,
760,761,762,763,764,
772,773,774,775,776,
784,785,786,787,788,
880,881,882,883,884,
892,893,894,895,896,
904,905,906,907,908,
916,917,918,919,920,
928,929,930,931,932
141,
305,306,307,308,309,
317,318,319,320,321,
329,330,331,332,333,
341,342,343,344,345,
353,354,355,356,357,
449,450,451,452,453,
461,462,463,464,465,
473,474,475,476,477,
485,486,487,488,489,
497,498,499,500,501,
593,594,595,596,597,
605,606,607,608,609,
617,618,619,620,621,
629,630,631,632,633,
641,642,643,644,645,
737,738,739,740,741,
749,750,751,752,753,
761,762,763,764,765,
773,774,775,776,777,
785,786,787,788,789,
881,882,883,884,885,
893,894,895,896,897,
905,906,907,908,909,
917,918,919,920,921,
929,930,931,932,933
142,
306,307,308,309,310,
318,319,320,321,322,
330,331,332,333,334,
342,343,344,345,346,
354,355,356,357,358,
450,451,452,453,454,
462,463,464,465,466,
474,475,476,477,478,
486,487,488,489,490,
498,499,500,501,502,
594,595,596,597,598,
606,607,608,609,610,
618,619,620,621,622,
630,631,632,633,634,
642,643,644,645,646,
738,739,740,741,742,
750,751,752,753,754,
762,763,764,765,766,
774,775,776,777,778,
786,787,788,789,790,
882,883,884,885,886,
894,895,896,897,898,
906,907,908,909,910,
918,919,920,921,922,
930,931,932,933,934
143,
307,308,309,310,311,
319,320,321,322,323,
331,332,333,334,335,
343,344,345,346,347,
355,356,357,358,359,
451,452,453,454,455,
463,464,465,466,467,
475,476,477,478,479,
487,488,489,490,491,
499,500,501,502,503,
595,596,597,598,599,
607,608,609,610,611,
619,620,621,622,623,
631,632,633,634,635,
643,644,645,646,647,
739,740,741,742,743,
751,752,753,754,755,
763,764,765,766,767,
775,776,777,778,779,
787,788,789,790,791,
883,884,885,886,887,
895,896,897,898,899,
907,908,909,910,911,
919,920,921,922,923,
931,932,933,934,935
144,
308,309,310,311,312,
320,321,322,323,324,
332,333,334,335,336,
344,345,346,347,348,
356,357,358,359,360,
452,453,454,455,456,
464,465,466,467,468,
476,477,478,479,480,
488,489,490,491,492,
500,501,502,503,504,
596,597,598,599,600,
608,609,610,611,612,
620,621,622,623,624,
632,633,634,635,636,
644,645,646,647,648,
740,741,742,743,744,
752,753,754,755,756,
764,765,766,767,768,
776,777,778,779,780,
788,789,790,791,792,
884,885,886,887,888,
896,897,898,899,900,
908,909,910,911,912,
920,921,922,923,924,
932,933,934,935,936
145,
313,314,315,316,317,
325,326,327,328,329,
337,338,339,340,341,
349,350,351,352,353,
361,362,363,364,365,
457,458,459,460,461,
469,470,471,472,473,
481,482,483,484,485,
493,494,495,496,497,
505,506,507,508,509,
601,602,603,604,605,
613,614,615,616,617,
625,626,627,628,629,
637,638,639,640,641,
649,650,651,652,653,
745,746,747,748,749,
757,758,759,760,761,
769,770,771,772,773,
781,782,783,784,785,
793,794,795,796,797,
889,890,891,892,893,
901,902,903,904,905,
913,914,915,916,917,
925,926,927,928,929,
937,938,939,940,941
146,
314,315,316,317,318,
326,327,328,329,330,
338,339,340,341,342,
350,351,352,353,354,
362,363,364,365,366,
458,459,460,461,462,
470,471,472,473,474,
482,483,484,485,486,
494,495,496,497,498,
506,507,508,509,510,
602,603,604,605,606,
614,615,616,617,618,
626,627,628,629,630,
638,639,640,641,642,
650,651,652,653,654,
746,747,748,749,750,
758,759,760,761,762,
770,771,772,773,774,
782,783,784,785,786,
794,795,796,797,798,
890,891,892,893,894,
902,903,904,905,906,
914,915,916,917,918,
926,927,928,929,930,
938,939,940,941,942
147,
315,316,317,318,319,
327,328,329,330,331,
339,340,341,342,343,
351,352,353,354,355,
363,364,365,366,367,
459,460,461,462,463,
471,472,473,474,475,
483,484,485,486,487,
495,496,497,498,499,
507,508,509,510,511,
603,604,605,606,607,
615,616,617,618,619,
627,628,629,630,631,
639,640,641,642,643,
651,652,653,654,655,
747,748,749,750,751,
759,760,761,762,763,
771,772,773,774,775,
783,784,785,786,787,
795,796,797,798,799,
891,892,893,894,895,
903,904,905,906,907,
915,916,917,918,919,
927,928,929,930,931,
939,940,941,942,943
148,
316,317,318,319,320,
328,329,330,331,332,
340,341,342,343,344,
352,353,354,355,356,
364,365,366,367,368,
460,461,462,463,464,
472,473,474,475,476,
484,485,486,487,488,
496,497,498,499,500,
508,509,510,511,512,
604,605,606,607,608,
616,617,618,619,620,
628,629,630,631,632,
640,641,642,643,644,
652,653,654,655,656,
748,749,750,751,752,
760,761,762,763,764,
772,773,774,775,776,
784,785,786,787,788,
796,797,798,799,800,
892,893,894,895,896,
904,905,906,907,908,
916,917,918,919,920,
928,929,930,931,932,
940,941,942,943,944
149,
317,318,319,320,321,
329,330,331,332,333,
341,342,343,344,345,
353,354,355,356,357,
365,366,367,368,369,
461,462,463,464,465,
473,474,475,476,477,
485,486,487,488,489,
497,498,499,500,501,
509,510,511,512,513,
605,606,607,608,609,
617,618,619,620,621,
629,630,631,632,633,
641,642,643,644,645,
653,654,655,656,657,
749,750,751,752,753,
761,762,763,764,765,
773,774,775,776,777,
785,786,787,788,789,
797,798,799,800,801,
893,894,895,896,897,
905,906,907,908,909,
917,918,919,920,921,
929,930,931,932,933,
941,942,943,944,945
150,
318,319,320,321,322,
330,331,332,333,334,
342,343,344,345,346,
354,355,356,357,358,
366,367,368,369,370,
462,463,464,465,466,
474,475,476,477,478,
486,487,488,489,490,
498,499,500,501,502,
510,511,512,513,514,
606,607,608,609,610,
618,619,620,621,622,
630,631,632,633,634,
642,643,644,645,646,
654,655,656,657,658,
750,751,752,753,754,
762,763,764,765,766,
774,775,776,777,778,
786,787,788,789,790,
798,799,800,801,802,
894,895,896,897,898,
906,907,908,909,910,
918,919,920,921,922,
930,931,932,933,934,
942,943,944,945,946
151,
319,320,321,322,323,
331,332,333,334,335,
343,344,345,346,347,
355,356,357,358,359,
367,368,369,370,371,
463,464,465,466,467,
475,476,477,478,479,
487,488,489,490,491,
499,500,501,502,503,
511,512,513,514,515,
607,608,609,610,611,
619,620,621,622,623,
631,632,633,634,635,
643,644,645,646,647,
655,656,657,658,659,
751,752,753,754,755,
763,764,765,766,767,
775,776,777,778,779,
787,788,789,790,791,
799,800,801,802,803,
895,896,897,898,899,
907,908,909,910,911,
919,920,921,922,923,
931,932,933,934,935,
943,944,945,946,947
152,
320,321,322,323,324,
332,333,334,335,336,
344,345,346,347,348,
356,357,358,359,360,
368,369,370,371,372,
464,465,466,467,468,
476,477,478,479,480,
488,489,490,491,492,
500,501,502,503,504,
512,513,514,515,516,
608,609,610,611,612,
620,621,622,623,624,
632,633,634,635,636,
644,645,646,647,648,
656,657,658,659,660,
752,753,754,755,756,
764,765,766,767,768,
776,777,778,779,780,
788,789,790,791,792,
800,801,802,803,804,
896,897,898,899,900,
908,909,910,911,912,
920,921,922,923,924,
932,933,934,935,936,
944,945,946,947,948
153,
325,326,327,328,329,
337,338,339,340,341,
349,350,351,352,353,
361,362,363,364,365,
373,374,375,376,377,
469,470,471,472,473,
481,482,483,484,485,
493,494,495,496,497,
505,506,507,508,509,
517,518,519,520,521,
613,614,615,616,617,
625,626,627,628,629,
637,638,639,640,641,
649,650,651,652,653,
661,662,663,664,665,
757,758,759,760,761,
769,770,771,772,773,
781,782,783,784,785,
793,794,795,796,797,
805,806,807,808,809,
901,902,903,904,905,
913,914,915,916,917,
925,926,927,928,929,
937,938,939,940,941,
949,950,951,952,953
154,
326,327,328,329,330,
338,339,340,341,342,
350,351,352,353,354,
362,363,364,365,366,
374,375,376,377,378,
470,471,472,473,474,
482,483,484,485,486,
494,495,496,497,498,
506,507,508,509,510,
518,519,520,521,522,
614,615,616,617,618,
626,627,628,629,630,
638,639,640,641,642,
650,651,652,653,654,
662,663,664,665,666,
758,759,760,761,762,
770,771,772,773,774,
782,783,784,785,786,
794,795,796,797,798,
806,807,808,809,810,
902,903,904,905,906,
914,915,916,917,918,
926,927,928,929,930,
938,939,940,941,942,
950,951,952,953,954
155,
327,328,329,330,331,
339,340,341,342,343,
351,352,353,354,355,
363,364,365,366,367,
375,376,377,378,379,
471,472,473,474,475,
483,484,485,486,487,
495,496,497,498,499,
507,508,509,510,511,
519,520,521,522,523,
615,616,617,618,619,
627,628,629,630,631,
639,640,641,642,643,
651,652,653,654,655,
663,664,665,666,667,
759,760,761,762,763,
771,772,773,774,775,
783,784,785,786,787,
795,796,797,798,799,
807,808,809,810,811,
903,904,905,906,907,
915,916,917,918,919,
927,928,929,930,931,
939,940,941,942,943,
951,952,953,954,955
156,
328,329,330,331,332,
340,341,342,343,344,
352,353,354,355,356,
364,365,366,367,368,
376,377,378,379,380,
472,473,474,475,476,
484,485,486,487,488,
496,497,498,499,500,
508,509,510,511,512,
520,521,522,523,524,
616,617,618,619,620,
628,629,630,631,632,
640,641,642,643,644,
652,653,654,655,656,
664,665,666,667,668,
760,761,762,763,764,
772,773,774,775,776,
784,785,786,787,788,
796,797,798,799,800,
808,809,810,811,812,
904,905,906,907,908,
916,917,918,919,920,
928,929,930,931,932,
940,941,942,943,944,
952,953,954,955,956
157,
329,330,331,332,333,
341,342,343,344,345,
353,354,355,356,357,
365,366,367,368,369,
377,378,379,380,381,
473,474,475,476,477,
485,486,487,488,489,
497,498,499,500,501,
509,510,511,512,513,
521,522,523,524,525,
617,618,619,620,621,
629,630,631,632,633,
641,642,643,644,645,
653,654,655,656,657,
665,666,667,668,669,
761,762,763,764,765,
773,774,775,776,777,
785,786,787,788,789,
797,798,799,800,801,
809,810,811,812,813,
905,906,907,908,909,
917,918,919,920,921,
929,930,931,932,933,
941,942,943,944,945,
953,954,955,956,957
158,
330,331,332,333,334,
342,343,344,345,346,
354,355,356,357,358,
366,367,368,369,370,
378,379,380,381,382,
474,475,476,477,478,
486,487,488,489,490,
498,499,500,501,502,
510,511,512,513,514,
522,523,524,525,526,
618,619,620,621,622,
630,631,632,633,634,
642,643,644,645,646,
654,655,656,657,658,
666,667,668,669,670,
762,763,764,765,766,
774,775,776,777,778,
786,787,788,789,790,
798,799,800,801,802,
810,811,812,813,814,
906,907,908,909,910,
918,919,920,921,922,
930,931,932,933,934,
942,943,944,945,946,
954,955,956,957,958
159,
331,332,333,334,335,
343,344,345,346,347,
355,356,357,358,359,
367,368,369,370,371,
379,380,381,382,383,
475,476,477,478,479,
487,488,489,490,491,
499,500,501,502,503,
511,512,513,514,515,
523,524,525,526,527,
619,620,621,622,623,
631,632,633,634,635,
643,644,645,646,647,
655,656,657,658,659,
667,668,669,670,671,
763,764,765,766,767,
775,776,777,778,779,
787,788,789,790,791,
799,800,801,802,803,
811,812,813,814,815,
907,908,909,910,911,
919,920,921,922,923,
931,932,933,934,935,
943,944,945,946,947,
955,956,957,958,959
160,
332,333,334,335,336,
344,345,346,347,348,
356,357,358,359,360,
368,369,370,371,372,
380,381,382,383,384,
476,477,478,479,480,
488,489,490,491,492,
500,501,502,503,504,
512,513,514,515,516,
524,525,526,527,528,
620,621,622,623,624,
632,633,634,635,636,
644,645,646,647,648,
656,657,658,659,660,
668,669,670,671,672,
764,765,766,767,768,
776,777,778,779,780,
788,789,790,791,792,
800,801,802,803,804,
812,813,814,815,816,
908,909,910,911,912,
920,921,922,923,924,
932,933,934,935,936,
944,945,946,947,948,
956,957,958,959,960
161,
337,338,339,340,341,
349,350,351,352,353,
361,362,363,364,365,
373,374,375,376,377,
385,386,387,388,389,
481,482,483,484,485,
493,494,495,496,497,
505,506,507,508,509,
517,518,519,520,521,
529,530,531,532,533,
625,626,627,628,629,
637,638,639,640,641,
649,650,651,652,653,
661,662,663,664,665,
673,674,675,676,677,
769,770,771,772,773,
781,782,783,784,785,
793,794,795,796,797,
805,806,807,808,809,
817,818,819,820,821,
913,914,915,916,917,
925,926,927,928,929,
937,938,939,940,941,
949,950,951,952,953,
961,962,963,964,965
162,
338,339,340,341,342,
350,351,352,353,354,
362,363,364,365,366,
374,375,376,377,378,
386,387,388,389,390,
482,483,484,485,486,
494,495,496,497,498,
506,507,508,509,510,
518,519,520,521,522,
530,531,532,533,534,
626,627,628,629,630,
638,639,640,641,642,
650,651,652,653,654,
662,663,664,665,666,
674,675,676,677,678,
770,771,772,773,774,
782,783,784,785,786,
794,795,796,797,798,
806,807,808,809,810,
818,819,820,821,822,
914,915,916,917,918,
926,927,928,929,930,
938,939,940,941,942,
950,951,952,953,954,
962,963,964,965,966
163,
339,340,341,342,343,
351,352,353,354,355,
363,364,365,366,367,
375,376,377,378,379,
387,388,389,390,391,
483,484,485,486,487,
495,496,497,498,499,
507,508,509,510,511,
519,520,521,522,523,
531,532,533,534,535,
627,628,629,630,631,
639,640,641,642,643,
651,652,653,654,655,
663,664,665,666,667,
675,676,677,678,679,
771,772,773,774,775,
783,784,785,786,787,
795,796,797,798,799,
807,808,809,810,811,
819,820,821,822,823,
915,916,917,918,919,
927,928,929,930,931,
939,940,941,942,943,
951,952,953,954,955,
963,964,965,966,967
164,
340,341,342,343,344,
352,353,354,355,356,
364,365,366,367,368,
376,377,378,379,380,
388,389,390,391,392,
484,485,486,487,488,
496,497,498,499,500,
508,509,510,511,512,
520,521,522,523,524,
532,533,534,535,536,
628,629,630,631,632,
640,641,642,643,644,
652,653,654,655,656,
664,665,666,667,668,
676,677,678,679,680,
772,773,774,775,776,
784,785,786,787,788,
796,797,798,799,800,
808,809,810,811,812,
820,821,822,823,824,
916,917,918,919,920,
928,929,930,931,932,
940,941,942,943,944,
952,953,954,955,956,
964,965,966,967,968
165,
341,342,343,344,345,
353,354,355,356,357,
365,366,367,368,369,
377,378,379,380,381,
389,390,391,392,393,
485,486,487,488,489,
497,498,499,500,501,
509,510,511,512,513,
521,522,523,524,525,
533,534,535,536,537,
629,630,631,632,633,
641,642,643,644,645,
653,654,655,656,657,
665,666,667,668,669,
677,678,679,680,681,
773,774,775,776,777,
785,786,787,788,789,
797,798,799,800,801,
809,810,811,812,813,
821,822,823,824,825,
917,918,919,920,921,
929,930,931,932,933,
941,942,943,944,945,
953,954,955,956,957,
965,966,967,968,969
166,
342,343,344,345,346,
354,355,356,357,358,
366,367,368,369,370,
378,379,380,381,382,
390,391,392,393,394,
486,487,488,489,490,
498,499,500,501,502,
510,511,512,513,514,
522,523,524,525,526,
534,535,536,537,538,
630,631,632,633,634,
642,643,644,645,646,
654,655,656,657,658,
666,667,668,669,670,
678,679,680,681,682,
774,775,776,777,778,
786,787,788,789,790,
798,799,800,801,802,
810,811,812,813,814,
822,823,824,825,826,
918,919,920,921,922,
930,931,932,933,934,
942,943,944,945,946,
954,955,956,957,958,
966,967,968,969,970
167,
343,344,345,346,347,
355,356,357,358,359,
367,368,369,370,371,
379,380,381,382,383,
391,392,393,394,395,
487,488,489,490,491,
499,500,501,502,503,
511,512,513,514,515,
523,524,525,526,527,
535,536,537,538,539,
631,632,633,634,635,
643,644,645,646,647,
655,656,657,658,659,
667,668,669,670,671,
679,680,681,682,683,
775,776,777,778,779,
787,788,789,790,791,
799,800,801,802,803,
811,812,813,814,815,
823,824,825,826,827,
919,920,921,922,923,
931,932,933,934,935,
943,944,945,946,947,
955,956,957,958,959,
967,968,969,970,971
168,
344,345,346,347,348,
356,357,358,359,360,
368,369,370,371,372,
380,381,382,383,384,
392,393,394,395,396,
488,489,490,491,492,
500,501,502,503,504,
512,513,514,515,516,
524,525,526,527,528,
536,537,538,539,540,
632,633,634,635,636,
644,645,646,647,648,
656,657,658,659,660,
668,669,670,671,672,
680,681,682,683,684,
776,777,778,779,780,
788,789,790,791,792,
800,801,802,803,804,
812,813,814,815,816,
824,825,826,827,828,
920,921,922,923,924,
932,933,934,935,936,
944,945,946,947,948,
956,957,958,959,960,
968,969,970,971,972
169,
349,350,351,352,353,
361,362,363,364,365,
373,374,375,376,377,
385,386,387,388,389,
397,398,399,400,401,
493,494,495,496,497,
505,506,507,508,509,
517,518,519,520,521,
529,530,531,532,533,
541,542,543,544,545,
637,638,639,640,641,
649,650,651,652,653,
661,662,663,664,665,
673,674,675,676,677,
685,686,687,688,689,
781,782,783,784,785,
793,794,795,796,797,
805,806,807,808,809,
817,818,819,820,821,
829,830,831,832,833,
925,926,927,928,929,
937,938,939,940,941,
949,950,951,952,953,
961,962,963,964,965,
973,974,975,976,977
170,
350,351,352,353,354,
362,363,364,365,366,
374,375,376,377,378,
386,387,388,389,390,
398,399,400,401,402,
494,495,496,497,498,
506,507,508,509,510,
518,519,520,521,522,
530,531,532,533,534,
542,543,544,545,546,
638,639,640,641,642,
650,651,652,653,654,
662,663,664,665,666,
674,675,676,677,678,
686,687,688,689,690,
782,783,784,785,786,
794,795,796,797,798,
806,807,808,809,810,
818,819,820,821,822,
830,831,832,833,834,
926,927,928,929,930,
938,939,940,941,942,
950,951,952,953,954,
962,963,964,965,966,
974,975,976,977,978
171,
351,352,353,354,355,
363,364,365,366,367,
375,376,377,378,379,
387,388,389,390,391,
399,400,401,402,403,
495,496,497,498,499,
507,508,509,510,511,
519,520,521,522,523,
531,532,533,534,535,
543,544,545,546,547,
639,640,641,642,643,
651,652,653,654,655,
663,664,665,666,667,
675,676,677,678,679,
687,688,689,690,691,
783,784,785,786,787,
795,796,797,798,799,
807,808,809,810,811,
819,820,821,822,823,
831,832,833,834,835,
927,928,929,930,931,
939,940,941,942,943,
951,952,953,954,955,
963,964,965,966,967,
975,976,977,978,979
172,
352,353,354,355,356,
364,365,366,367,368,
376,377,378,379,380,
388,389,390,391,392,
400,401,402,403,404,
496,497,498,499,500,
508,509,510,511,512,
520,521,522,523,524,
532,533,534,535,536,
544,545,546,547,548,
640,641,642,643,644,
652,653,654,655,656,
664,665,666,667,668,
676,677,678,679,680,
688,689,690,691,692,
784,785,786,787,788,
796,797,798,799,800,
808,809,810,811,812,
820,821,822,823,824,
832,833,834,835,836,
928,929,930,931,932,
940,941,942,943,944,
952,953,954,955,956,
964,965,966,967,968,
976,977,978,979,980
173,
353,354,355,356,357,
365,366,367,368,369,
377,378,379,380,381,
389,390,391,392,393,
401,402,403,404,405,
497,498,499,500,501,
509,510,511,512,513,
521,522,523,524,525,
533,534,535,536,537,
545,546,547,548,549,
641,642,643,644,645,
653,654,655,656,657,
665,666,667,668,669,
677,678,679,680,681,
689,690,691,692,693,
785,786,787,788,789,
797,798,799,800,801,
809,810,811,812,813,
821,822,823,824,825,
833,834,835,836,837,
929,930,931,932,933,
941,942,943,944,945,
953,954,955,956,957,
965,966,967,968,969,
977,978,979,980,981
174,
354,355,356,357,358,
366,367,368,369,370,
378,379,380,381,382,
390,391,392,393,394,
402,403,404,405,406,
498,499,500,501,502,
510,511,512,513,514,
522,523,524,525,526,
534,535,536,537,538,
546,547,548,549,550,
642,643,644,645,646,
654,655,656,657,658,
666,667,668,669,670,
678,679,680,681,682,
690,691,692,693,694,
786,787,788,789,790,
798,799,800,801,802,
810,811,812,813,814,
822,823,824,825,826,
834,835,836,837,838,
930,931,932,933,934,
942,943,944,945,946,
954,955,956,957,958,
966,967,968,969,970,
978,979,980,981,982
175,
355,356,357,358,359,
367,368,369,370,371,
379,380,381,382,383,
391,392,393,394,395,
403,404,405,406,407,
499,500,501,502,503,
511,512,513,514,515,
523,524,525,526,527,
535,536,537,538,539,
547,548,549,550,551,
643,644,645,646,647,
655,656,657,658,659,
667,668,669,670,671,
679,680,681,682,683,
691,692,693,694,695,
787,788,789,790,791,
799,800,801,802,803,
811,812,813,814,815,
823,824,825,826,827,
835,836,837,838,839,
931,932,933,934,935,
943,944,945,946,947,
955,956,957,958,959,
967,968,969,970,971,
979,980,981,982,983
176,
356,357,358,359,360,
368,369,370,371,372,
380,381,382,383,384,
392,393,394,395,396,
404,405,406,407,408,
500,501,502,503,504,
512,513,514,515,516,
524,525,526,527,528,
536,537,538,539,540,
548,549,550,551,552,
644,645,646,647,648,
656,657,658,659,660,
668,669,670,671,672,
680,681,682,683,684,
692,693,694,695,696,
788,789,790,791,792,
800,801,802,803,804,
812,813,814,815,816,
824,825,826,827,828,
836,837,838,839,840,
932,933,934,935,936,
944,945,946,947,948,
956,957,958,959,960,
968,969,970,971,972,
980,981,982,983,984
177,
361,362,363,364,365,
373,374,375,376,377,
385,386,387,388,389,
397,398,399,400,401,
409,410,411,412,413,
505,506,507,508,509,
517,518,519,520,521,
529,530,531,532,533,
541,542,543,544,545,
553,554,555,556,557,
649,650,651,652,653,
661,662,663,664,665,
673,674,675,676,677,
685,686,687,688,689,
697,698,699,700,701,
793,794,795,796,797,
805,806,807,808,809,
817,818,819,820,821,
829,830,831,832,833,
841,842,843,844,845,
937,938,939,940,941,
949,950,951,952,953,
961,962,963,964,965,
973,974,975,976,977,
985,986,987,988,989
178,
362,363,364,365,366,
374,375,376,377,378,
386,387,388,389,390,
398,399,400,401,402,
410,411,412,413,414,
506,507,508,509,510,
518,519,520,521,522,
530,531,532,533,534,
542,543,544,545,546,
554,555,556,557,558,
650,651,652,653,654,
662,663,664,665,666,
674,675,676,677,678,
686,687,688,689,690,
698,699,700,701,702,
794,795,796,797,798,
806,807,808,809,810,
818,819,820,821,822,
830,831,832,833,834,
842,843,844,845,846,
938,939,940,941,942,
950,951,952,953,954,
962,963,964,965,966,
974,975,976,977,978,
986,987,988,989,990
179,
363,364,365,366,367,
375,376,377,378,379,
387,388,389,390,391,
399,400,401,402,403,
411,412,413,414,415,
507,508,509,510,511,
519,520,521,522,523,
531,532,533,534,535,
543,544,545,546,547,
555,556,557,558,559,
651,652,653,654,655,
663,664,665,666,667,
675,676,677,678,679,
687,688,689,690,691,
699,700,701,702,703,
795,796,797,798,799,
807,808,809,810,811,
819,820,821,822,823,
831,832,833,834,835,
843,844,845,846,847,
939,940,941,942,943,
951,952,953,954,955,
963,964,965,966,967,
975,976,977,978,979,
987,988,989,990,991
180,
364,365,366,367,368,
376,377,378,379,380,
388,389,390,391,392,
400,401,402,403,404,
412,413,414,415,416,
508,509,510,511,512,
520,521,522,523,524,
532,533,534,535,536,
544,545,546,547,548,
556,557,558,559,560,
652,653,654,655,656,
664,665,666,667,668,
676,677,678,679,680,
688,689,690,691,692,
700,701,702,703,704,
796,797,798,799,800,
808,809,810,811,812,
820,821,822,823,824,
832,833,834,835,836,
844,845,846,847,848,
940,941,942,943,944,
952,953,954,955,956,
964,965,966,967,968,
976,977,978,979,980,
988,989,990,991,992
181,
365,366,367,368,369,
377,378,379,380,381,
389,390,391,392,393,
401,402,403,404,405,
413,414,415,416,417,
509,510,511,512,513,
521,522,523,524,525,
533,534,535,536,537,
545,546,547,548,549,
557,558,559,560,561,
653,654,655,656,657,
665,666,667,668,669,
677,678,679,680,681,
689,690,691,692,693,
701,702,703,704,705,
797,798,799,800,801,
809,810,811,812,813,
821,822,823,824,825,
833,834,835,836,837,
845,846,847,848,849,
941,942,943,944,945,
953,954,955,956,957,
965,966,967,968,969,
977,978,979,980,981,
989,990,991,992,993
182,
366,367,368,369,370,
378,379,380,381,382,
390,391,392,393,394,
402,403,404,405,406,
414,415,416,417,418,
510,511,512,513,514,
522,523,524,525,526,
534,535,536,537,538,
546,547,548,549,550,
558,559,560,561,562,
654,655,656,657,658,
666,667,668,669,670,
678,679,680,681,682,
690,691,692,693,694,
702,703,704,705,706,
798,799,800,801,802,
810,811,812,813,814,
822,823,824,825,826,
834,835,836,837,838,
846,847,848,849,850,
942,943,944,945,946,
954,955,956,957,958,
966,967,968,969,970,
978,979,980,981,982,
990,991,992,993,994
183,
367,368,369,370,371,
379,380,381,382,383,
391,392,393,394,395,
403,404,405,406,407,
415,416,417,418,419,
511,512,513,514,515,
523,524,525,526,527,
535,536,537,538,539,
547,548,549,550,551,
559,560,561,562,563,
655,656,657,658,659,
667,668,669,670,671,
679,680,681,682,683,
691,692,693,694,695,
703,704,705,706,707,
799,800,801,802,803,
811,812,813,814,815,
823,824,825,826,827,
835,836,837,838,839,
847,848,849,850,851,
943,944,945,946,947,
955,956,957,958,959,
967,968,969,970,971,
979,980,981,982,983,
991,992,993,994,995
184,
368,369,370,371,372,
380,381,382,383,384,
392,393,394,395,396,
404,405,406,407,408,
416,417,418,419,420,
512,513,514,515,516,
524,525,526,527,528,
536,537,538,539,540,
548,549,550,551,552,
560,561,562,563,564,
656,657,658,659,660,
668,669,670,671,672,
680,681,682,683,684,
692,693,694,695,696,
704,705,706,707,708,
800,801,802,803,804,
812,813,814,815,816,
824,825,826,827,828,
836,837,838,839,840,
848,849,850,851,852,
944,945,946,947,948,
956,957,958,959,960,
968,969,970,971,972,
980,981,982,983,984,
992,993,994,995,996
185,
373,374,375,376,377,
385,386,387,388,389,
397,398,399,400,401,
409,410,411,412,413,
421,422,423,424,425,
517,518,519,520,521,
529,530,531,532,533,
541,542,543,544,545,
553,554,555,556,557,
565,566,567,568,569,
661,662,663,664,665,
673,674,675,676,677,
685,686,687,688,689,
697,698,699,700,701,
709,710,711,712,713,
805,806,807,808,809,
817,818,819,820,821,
829,830,831,832,833,
841,842,843,844,845,
853,854,855,856,857,
949,950,951,952,953,
961,962,963,964,965,
973,974,975,976,977,
985,986,987,988,989,
997,998,999,1000,1001
186,
374,375,376,377,378,
386,387,388,389,390,
398,399,400,401,402,
410,411,412,413,414,
422,423,424,425,426,
518,519,520,521,522,
530,531,532,533,534,
542,543,544,545,546,
554,555,556,557,558,
566,567,568,569,570,
662,663,664,665,666,
674,675,676,677,678,
686,687,688,689,690,
698,699,700,701,702,
710,711,712,713,714,
806,807,808,809,810,
818,819,820,821,822,
830,831,832,833,834,
842,843,844,845,846,
854,855,856,857,858,
950,951,952,953,954,
962,963,964,965,966,
974,975,976,977,978,
986,987,988,989,990,
998,999,1000,1001,1002
187,
375,376,377,378,379,
387,388,389,390,391,
399,400,401,402,403,
411,412,413,414,415,
423,424,425,426,427,
519,520,521,522,523,
531,532,533,534,535,
543,544,545,546,547,
555,556,557,558,559,
567,568,569,570,571,
663,664,665,666,667,
675,676,677,678,679,
687,688,689,690,691,
699,700,701,702,703,
711,712,713,714,715,
807,808,809,810,811,
819,820,821,822,823,
831,832,833,834,835,
843,844,845,846,847,
855,856,857,858,859,
951,952,953,954,955,
963,964,965,966,967,
975,976,977,978,979,
987,988,989,990,991,
999,1000,1001,1002,1003
188,
376,377,378,379,380,
388,389,390,391,392,
400,401,402,403,404,
412,413,414,415,416,
424,425,426,427,428,
520,521,522,523,524,
532,533,534,535,536,
544,545,546,547,548,
556,557,558,559,560,
568,569,570,571,572,
664,665,666,667,668,
676,677,678,679,680,
688,689,690,691,692,
700,701,702,703,704,
712,713,714,715,716,
808,809,810,811,812,
820,821,822,823,824,
832,833,834,835,836,
844,845,846,847,848,
856,857,858,859,860,
952,953,954,955,956,
964,965,966,967,968,
976,977,978,979,980,
988,989,990,991,992,
1000,1001,1002,1003,1004
189,
377,378,379,380,381,
389,390,391,392,393,
401,402,403,404,405,
413,414,415,416,417,
425,426,427,428,429,
521,522,523,524,525,
533,534,535,536,537,
545,546,547,548,549,
557,558,559,560,561,
569,570,571,572,573,
665,666,667,668,669,
677,678,679,680,681,
689,690,691,692,693,
701,702,703,704,705,
713,714,715,716,717,
809,810,811,812,813,
821,822,823,824,825,
833,834,835,836,837,
845,846,847,848,849,
857,858,859,860,861,
953,954,955,956,957,
965,966,967,968,969,
977,978,979,980,981,
989,990,991,992,993,
1001,1002,1003,1004,1005
190,
378,379,380,381,382,
390,391,392,393,394,
402,403,404,405,406,
414,415,416,417,418,
426,427,428,429,430,
522,523,524,525,526,
534,535,536,537,538,
546,547,548,549,550,
558,559,560,561,562,
570,571,572,573,574,
666,667,668,669,670,
678,679,680,681,682,
690,691,692,693,694,
702,703,704,705,706,
714,715,716,717,718,
810,811,812,813,814,
822,823,824,825,826,
834,835,836,837,838,
846,847,848,849,850,
858,859,860,861,862,
954,955,956,957,958,
966,967,968,969,970,
978,979,980,981,982,
990,991,992,993,994,
1002,1003,1004,1005,1006
191,
379,380,381,382,383,
391,392,393,394,395,
403,404,405,406,407,
415,416,417,418,419,
427,428,429,430,431,
523,524,525,526,527,
535,536,537,538,539,
547,548,549,550,551,
559,560,561,562,563,
571,572,573,574,575,
667,668,669,670,671,
679,680,681,682,683,
691,692,693,694,695,
703,704,705,706,707,
715,716,717,718,719,
811,812,813,814,815,
823,824,825,826,827,
835,836,837,838,839,
847,848,849,850,851,
859,860,861,862,863,
955,956,957,958,959,
967,968,969,970,971,
979,980,981,982,983,
991,992,993,994,995,
1003,1004,1005,1006,1007
192,
380,381,382,383,384,
392,393,394,395,396,
404,405,406,407,408,
416,417,418,419,420,
428,429,430,431,432,
524,525,526,527,528,
536,537,538,539,540,
548,549,550,551,552,
560,561,562,563,564,
572,573,574,575,576,
668,669,670,671,672,
680,681,682,683,684,
692,693,694,695,696,
704,705,706,707,708,
716,717,718,719,720,
812,813,814,815,816,
824,825,826,827,828,
836,837,838,839,840,
848,849,850,851,852,
860,861,862,863,864,
956,957,958,959,960,
968,969,970,971,972,
980,981,982,983,984,
992,993,994,995,996,
1004,1005,1006,1007,1008
193,
433,434,435,436,437,
445,446,447,448,449,
457,458,459,460,461,
469,470,471,472,473,
481,482,483,484,485,
577,578,579,580,581,
589,590,591,592,593,
601,602,603,604,605,
613,614,615,616,617,
625,626,627,628,629,
721,722,723,724,725,
733,734,735,736,737,
745,746,747,748,749,
757,758,759,760,761,
769,770,771,772,773,
865,866,867,868,869,
877,878,879,880,881,
889,890,891,892,893,
901,902,903,904,905,
913,914,915,916,917,
1009,1010,1011,1012,1013,
1021,1022,1023,1024,1025,
1033,1034,1035,1036,1037,
1045,1046,1047,1048,1049,
1057,1058,1059,1060,1061
194,
434,435,436,437,438,
446,447,448,449,450,
458,459,460,461,462,
470,471,472,473,474,
482,483,484,485,486,
578,579,580,581,582,
590,591,592,593,594,
602,603,604,605,606,
614,615,616,617,618,
626,627,628,629,630,
722,723,724,725,726,
734,735,736,737,738,
746,747,748,749,750,
758,759,760,761,762,
770,771,772,773,774,
866,867,868,869,870,
878,879,880,881,882,
890,891,892,893,894,
902,903,904,905,906,
914,915,916,917,918,
1010,1011,1012,1013,1014,
1022,1023,1024,1025,1026,
1034,1035,1036,1037,1038,
1046,1047,1048,1049,1050,
1058,1059,1060,1061,1062
195,
435,436,437,438,439,
447,448,449,450,451,
459,460,461,462,463,
471,472,473,474,475,
483,484,485,486,487,
579,580,581,582,583,
591,592,593,594,595,
603,604,605,606,607,
615,616,617,618,619,
627,628,629,630,631,
723,724,725,726,727,
735,736,737,738,739,
747,748,749,750,751,
759,760,761,762,763,
771,772,773,774,775,
867,868,869,870,871,
879,880,881,882,883,
891,892,893,894,895,
903,904,905,906,907,
915,916,917,918,919,
1011,1012,1013,1014,1015,
1023,1024,1025,1026,1027,
1035,1036,1037,1038,1039,
1047,1048,1049,1050,1051,
1059,1060,1061,1062,1063
196,
436,437,438,439,440,
448,449,450,451,452,
460,461,462,463,464,
472,473,474,475,476,
484,485,486,487,488,
580,581,582,583,584,
592,593,594,595,596,
604,605,606,607,608,
616,617,618,619,620,
628,629,630,631,632,
724,725,726,727,728,
736,737,738,739,740,
748,749,750,751,752,
760,761,762,763,764,
772,773,774,775,776,
868,869,870,871,872,
880,881,882,883,884,
892,893,894,895,896,
904,905,906,907,908,
916,917,918,919,920,
1012,1013,1014,1015,1016,
1024,1025,1026,1027,1028,
1036,1037,1038,1039,1040,
1048,1049,1050,1051,1052,
1060,1061,1062,1063,1064
197,
437,438,439,440,441,
449,450,451,452,453,
461,462,463,464,465,
473,474,475,476,477,
485,486,487,488,489,
581,582,583,584,585,
593,594,595,596,597,
605,606,607,608,609,
617,618,619,620,621,
629,630,631,632,633,
725,726,727,728,729,
737,738,739,740,741,
749,750,751,752,753,
761,762,763,764,765,
773,774,775,776,777,
869,870,871,872,873,
881,882,883,884,885,
893,894,895,896,897,
905,906,907,908,909,
917,918,919,920,921,
1013,1014,1015,1016,1017,
1025,1026,1027,1028,1029,
1037,1038,1039,1040,1041,
1049,1050,1051,1052,1053,
1061,1062,1063,1064,1065
198,
438,439,440,441,442,
450,451,452,453,454,
462,463,464,465,466,
474,475,476,477,478,
486,487,488,489,490,
582,583,584,585,586,
594,595,596,597,598,
606,607,608,609,610,
618,619,620,621,622,
630,631,632,633,634,
726,727,728,729,730,
738,739,740,741,742,
750,751,752,753,754,
762,763,764,765,766,
774,775,776,777,778,
870,871,872,873,874,
882,883,884,885,886,
894,895,896,897,898,
906,907,908,909,910,
918,919,920,921,922,
1014,1015,1016,1017,1018,
1026,1027,1028,1029,1030,
1038,1039,1040,1041,1042,
1050,1051,1052,1053,1054,
1062,1063,1064,1065,1066
199,
439,440,441,442,443,
451,452,453,454,455,
463,464,465,466,467,
475,476,477,478,479,
487,488,489,490,491,
583,584,585,586,587,
595,596,597,598,599,
607,608,609,610,611,
619,620,621,622,623,
631,632,633,634,635,
727,728,729,730,731,
739,740,741,742,743,
751,752,753,754,755,
763,764,765,766,767,
775,776,777,778,779,
871,872,873,874,875,
883,884,885,886,887,
895,896,897,898,899,
907,908,909,910,911,
919,920,921,922,923,
1015,1016,1017,1018,1019,
1027,1028,1029,1030,1031,
1039,1040,1041,1042,1043,
1051,1052,1053,1054,1055,
1063,1064,1065,1066,1067
200,
440,441,442,443,444,
452,453,454,455,456,
464,465,466,467,468,
476,477,478,479,480,
488,489,490,491,492,
584,585,586,587,588,
596,597,598,599,600,
608,609,610,611,612,
620,621,622,623,624,
632,633,634,635,636,
728,729,730,731,732,
740,741,742,743,744,
752,753,754,755,756,
764,765,766,767,768,
776,777,778,779,780,
872,873,874,875,876,
884,885,886,887,888,
896,897,898,899,900,
908,909,910,911,912,
920,921,922,923,924,
1016,1017,1018,1019,1020,
1028,1029,1030,1031,1032,
1040,1041,1042,1043,1044,
1052,1053,1054,1055,1056,
1064,1065,1066,1067,1068
201,
445,446,447,448,449,
457,458,459,460,461,
469,470,471,472,473,
481,482,483,484,485,
493,494,495,496,497,
589,590,591,592,593,
601,602,603,604,605,
613,614,615,616,617,
625,626,627,628,629,
637,638,639,640,641,
733,734,735,736,737,
745,746,747,748,749,
757,758,759,760,761,
769,770,771,772,773,
781,782,783,784,785,
877,878,879,880,881,
889,890,891,892,893,
901,902,903,904,905,
913,914,915,916,917,
925,926,927,928,929,
1021,1022,1023,1024,1025,
1033,1034,1035,1036,1037,
1045,1046,1047,1048,1049,
1057,1058,1059,1060,1061,
1069,1070,1071,1072,1073
202,
446,447,448,449,450,
458,459,460,461,462,
470,471,472,473,474,
482,483,484,485,486,
494,495,496,497,498,
590,591,592,593,594,
602,603,604,605,606,
614,615,616,617,618,
626,627,628,629,630,
638,639,640,641,642,
734,735,736,737,738,
746,747,748,749,750,
758,759,760,761,762,
770,771,772,773,774,
782,783,784,785,786,
878,879,880,881,882,
890,891,892,893,894,
902,903,904,905,906,
914,915,916,917,918,
926,927,928,929,930,
1022,1023,1024,1025,1026,
1034,1035,1036,1037,1038,
1046,1047,1048,1049,1050,
1058,1059,1060,1061,1062,
1070,1071,1072,1073,1074
203,
447,448,449,450,451,
459,460,461,462,463,
471,472,473,474,475,
483,484,485,486,487,
495,496,497,498,499,
591,592,593,594,595,
603,604,605,606,607,
615,616,617,618,619,
627,628,629,630,631,
639,640,641,642,643,
735,736,737,738,739,
747,748,749,750,751,
759,760,761,762,763,
771,772,773,774,775,
783,784,785,786,787,
879,880,881,882,883,
891,892,893,894,895,
903,904,905,906,907,
915,916,917,918,919,
927,928,929,930,931,
1023,1024,1025,1026,1027,
1035,1036,1037,1038,1039,
1047,1048,1049,1050,1051,
1059,1060,1061,1062,1063,
1071,1072,1073,1074,1075
204,
448,449,450,451,452,
460,461,462,463,464,
472,473,474,475,476,
484,485,486,487,488,
496,497,498,499,500,
592,593,594,595,596,
604,605,606,607,608,
616,617,618,619,620,
628,629,630,631,632,
640,641,642,643,644,
736,737,738,739,740,
748,749,750,751,752,
760,761,762,763,764,
772,773,774,775,776,
784,785,786,787,788,
880,881,882,883,884,
892,893,894,895,896,
904,905,906,907,908,
916,917,918,919,920,
928,929,930,931,932,
1024,1025,1026,1027,1028,
1036,1037,1038,1039,1040,
1048,1049,1050,1051,1052,
1060,1061,1062,1063,1064,
1072,1073,1074,1075,1076
205,
449,450,451,452,453,
461,462,463,464,465,
473,474,475,476,477,
485,486,487,488,489,
497,498,499,500,501,
593,594,595,596,597,
605,606,607,608,609,
617,618,619,620,621,
629,630,631,632,633,
641,642,643,644,645,
737,738,739,740,741,
749,750,751,752,753,
761,762,763,764,765,
773,774,775,776,777,
785,786,787,788,789,
881,882,883,884,885,
893,894,895,896,897,
905,906,907,908,909,
917,918,919,920,921,
929,930,931,932,933,
1025,1026,1027,1028,1029,
1037,1038,1039,1040,1041,
1049,1050,1051,1052,1053,
1061,1062,1063,1064,1065,
1073,1074,1075,1076,1077
206,
450,451,452,453,454,
462,463,464,465,466,
474,475,476,477,478,
486,487,488,489,490,
498,499,500,501,502,
594,595,596,597,598,
606,607,608,609,610,
618,619,620,621,622,
630,631,632,633,634,
642,643,644,645,646,
738,739,740,741,742,
750,751,752,753,754,
762,763,764,765,766,
774,775,776,777,778,
786,787,788,789,790,
882,883,884,885,886,
894,895,896,897,898,
906,907,908,909,910,
918,919,920,921,922,
930,931,932,933,934,
1026,1027,1028,1029,1030,
1038,1039,1040,1041,1042,
1050,1051,1052,1053,1054,
1062,1063,1064,1065,1066,
1074,1075,1076,1077,1078
207,
451,452,453,454,455,
463,464,465,466,467,
475,476,477,478,479,
487,488,489,490,491,
499,500,501,502,503,
595,596,597,598,599,
607,608,609,610,611,
619,620,621,622,623,
631,632,633,634,635,
643,644,645,646,647,
739,740,741,742,743,
751,752,753,754,755,
763,764,765,766,767,
775,776,777,778,779,
787,788,789,790,791,
883,884,885,886,887,
895,896,897,898,899,
907,908,909,910,911,
919,920,921,922,923,
931,932,933,934,935,
1027,1028,1029,1030,1031,
1039,1040,1041,1042,1043,
1051,1052,1053,1054,1055,
1063,1064,1065,1066,1067,
1075,1076,1077,1078,1079
208,
452,453,454,455,456,
464,465,466,467,468,
476,477,478,479,480,
488,489,490,491,492,
500,501,502,503,504,
596,597,598,599,600,
608,609,610,611,612,
620,621,622,623,624,
632,633,634,635,636,
644,645,646,647,648,
740,741,742,743,744,
752,753,754,755,756,
764,765,766,767,768,
776,777,778,779,780,
788,789,790,791,792,
884,885,886,887,888,
896,897,898,899,900,
908,909,910,911,912,
920,921,922,923,924,
932,933,934,935,936,
1028,1029,1030,1031,1032,
1040,1041,1042,1043,1044,
1052,1053,1054,1055,1056,
1064,1065,1066,1067,1068,
1076,1077,1078,1079,1080
209,
457,458,459,460,461,
469,470,471,472,473,
481,482,483,484,485,
493,494,495,496,497,
505,506,507,508,509,
601,602,603,604,605,
613,614,615,616,617,
625,626,627,628,629,
637,638,639,640,641,
649,650,651,652,653,
745,746,747,748,749,
757,758,759,760,761,
769,770,771,772,773,
781,782,783,784,785,
793,794,795,796,797,
889,890,891,892,893,
901,902,903,904,905,
913,914,915,916,917,
925,926,927,928,929,
937,938,939,940,941,
1033,1034,1035,1036,1037,
1045,1046,1047,1048,1049,
1057,1058,1059,1060,1061,
1069,1070,1071,1072,1073,
1081,1082,1083,1084,1085
210,
458,459,460,461,462,
470,471,472,473,474,
482,483,484,485,486,
494,495,496,497,498,
506,507,508,509,510,
602,603,604,605,606,
614,615,616,617,618,
626,627,628,629,630,
638,639,640,641,642,
650,651,652,653,654,
746,747,748,749,750,
758,759,760,761,762,
770,771,772,773,774,
782,783,784,785,786,
794,795,796,797,798,
890,891,892,893,894,
902,903,904,905,906,
914,915,916,917,918,
926,927,928,929,930,
938,939,940,941,942,
1034,1035,1036,1037,1038,
1046,1047,1048,1049,1050,
1058,1059,1060,1061,1062,
1070,1071,1072,1073,1074,
1082,1083,1084,1085,1086
211,
459,460,461,462,463,
471,472,473,474,475,
483,484,485,486,487,
495,496,497,498,499,
507,508,509,510,511,
603,604,605,606,607,
615,616,617,618,619,
627,628,629,630,631,
639,640,641,642,643,
651,652,653,654,655,
747,748,749,750,751,
759,760,761,762,763,
771,772,773,774,775,
783,784,785,786,787,
795,796,797,798,799,
891,892,893,894,895,
903,904,905,906,907,
915,916,917,918,919,
927,928,929,930,931,
939,940,941,942,943,
1035,1036,1037,1038,1039,
1047,1048,1049,1050,1051,
1059,1060,1061,1062,1063,
1071,1072,1073,1074,1075,
1083,1084,1085,1086,1087
212,
460,461,462,463,464,
472,473,474,475,476,
484,485,486,487,488,
496,497,498,499,500,
508,509,510,511,512,
604,605,606,607,608,
616,617,618,619,620,
628,629,630,631,632,
640,641,642,643,644,
652,653,654,655,656,
748,749,750,751,752,
760,761,762,763,764,
772,773,774,775,776,
784,785,786,787,788,
796,797,798,799,800,
892,893,894,895,896,
904,905,906,907,908,
916,917,918,919,920,
928,929,930,931,932,
940,941,942,943,944,
1036,1037,1038,1039,1040,
1048,1049,1050,1051,1052,
1060,1061,1062,1063,1064,
1072,1073,1074,1075,1076,
1084,1085,1086,1087,1088
213,
461,462,463,464,465,
473,474,475,476,477,
485,486,487,488,489,
497,498,499,500,501,
509,510,511,512,513,
605,606,607,608,609,
617,618,619,620,621,
629,630,631,632,633,
641,642,643,644,645,
653,654,655,656,657,
749,750,751,752,753,
761,762,763,764,765,
773,774,775,776,777,
785,786,787,788,789,
797,798,799,800,801,
893,894,895,896,897,
905,906,907,908,909,
917,918,919,920,921,
929,930,931,932,933,
941,942,943,944,945,
1037,1038,1039,1040,1041,
1049,1050,1051,1052,1053,
1061,1062,1063,1064,1065,
1073,1074,1075,1076,1077,
1085,1086,1087,1088,1089
214,
462,463,464,465,466,
474,475,476,477,478,
486,487,488,489,490,
498,499,500,501,502,
510,511,512,513,514,
606,607,608,609,610,
618,619,620,621,622,
630,631,632,633,634,
642,643,644,645,646,
654,655,656,657,658,
750,751,752,753,754,
762,763,764,765,766,
774,775,776,777,778,
786,787,788,789,790,
798,799,800,801,802,
894,895,896,897,898,
906,907,908,909,910,
918,919,920,921,922,
930,931,932,933,934,
942,943,944,945,946,
1038,1039,1040,1041,1042,
1050,1051,1052,1053,1054,
1062,1063,1064,1065,1066,
1074,1075,1076,1077,1078,
1086,1087,1088,1089,1090
215,
463,464,465,466,467,
475,476,477,478,479,
487,488,489,490,491,
499,500,501,502,503,
511,512,513,514,515,
607,608,609,610,611,
619,620,621,622,623,
631,632,633,634,635,
643,644,645,646,647,
655,656,657,658,659,
751,752,753,754,755,
763,764,765,766,767,
775,776,777,778,779,
787,788,789,790,791,
799,800,801,802,803,
895,896,897,898,899,
907,908,909,910,911,
919,920,921,922,923,
931,932,933,934,935,
943,944,945,946,947,
1039,1040,1041,1042,1043,
1051,1052,1053,1054,1055,
1063,1064,1065,1066,1067,
1075,1076,1077,1078,1079,
1087,1088,1089,1090,1091
216,
464,465,466,467,468,
476,477,478,479,480,
488,489,490,491,492,
500,501,502,503,504,
512,513,514,515,516,
608,609,610,611,612,
620,621,622,623,624,
632,633,634,635,636,
644,645,646,647,648,
656,657,658,659,660,
752,753,754,755,756,
764,765,766,767,768,
776,777,778,779,780,
788,789,790,791,792,
800,801,802,803,804,
896,897,898,899,900,
908,909,910,911,912,
920,921,922,923,924,
932,933,934,935,936,
944,945,946,947,948,
1040,1041,1042,1043,1044,
1052,1053,1054,1055,1056,
1064,1065,1066,1067,1068,
1076,1077,1078,1079,1080,
1088,1089,1090,1091,1092
217,
469,470,471,472,473,
481,482,483,484,485,
493,494,495,496,497,
505,506,507,508,509,
517,518,519,520,521,
613,614,615,616,617,
625,626,627,628,629,
637,638,639,640,641,
649,650,651,652,653,
661,662,663,664,665,
757,758,759,760,761,
769,770,771,772,773,
781,782,783,784,785,
793,794,795,796,797,
805,806,807,808,809,
901,902,903,904,905,
913,914,915,916,917,
925,926,927,928,929,
937,938,939,940,941,
949,950,951,952,953,
1045,1046,1047,1048,1049,
1057,1058,1059,1060,1061,
1069,1070,1071,1072,1073,
1081,1082,1083,1084,1085,
1093,1094,1095,1096,1097
218,
470,471,472,473,474,
482,483,484,485,486,
494,495,496,497,498,
506,507,508,509,510,
518,519,520,521,522,
614,615,616,617,618,
626,627,628,629,630,
638,639,640,641,642,
650,651,652,653,654,
662,663,664,665,666,
758,759,760,761,762,
770,771,772,773,774,
782,783,784,785,786,
794,795,796,797,798,
806,807,808,809,810,
902,903,904,905,906,
914,915,916,917,918,
926,927,928,929,930,
938,939,940,941,942,
950,951,952,953,954,
1046,1047,1048,1049,1050,
1058,1059,1060,1061,1062,
1070,1071,1072,1073,1074,
1082,1083,1084,1085,1086,
1094,1095,1096,1097,1098
219,
471,472,473,474,475,
483,484,485,486,487,
495,496,497,498,499,
507,508,509,510,511,
519,520,521,522,523,
615,616,617,618,619,
627,628,629,630,631,
639,640,641,642,643,
651,652,653,654,655,
663,664,665,666,667,
759,760,761,762,763,
771,772,773,774,775,
783,784,785,786,787,
795,796,797,798,799,
807,808,809,810,811,
903,904,905,906,907,
915,916,917,918,919,
927,928,929,930,931,
939,940,941,942,943,
951,952,953,954,955,
1047,1048,1049,1050,1051,
1059,1060,1061,1062,1063,
1071,1072,1073,1074,1075,
1083,1084,1085,1086,1087,
1095,1096,1097,1098,1099
220,
472,473,474,475,476,
484,485,486,487,488,
496,497,498,499,500,
508,509,510,511,512,
520,521,522,523,524,
616,617,618,619,620,
628,629,630,631,632,
640,641,642,643,644,
652,653,654,655,656,
664,665,666,667,668,
760,761,762,763,764,
772,773,774,775,776,
784,785,786,787,788,
796,797,798,799,800,
808,809,810,811,812,
904,905,906,907,908,
916,917,918,919,920,
928,929,930,931,932,
940,941,942,943,944,
952,953,954,955,956,
1048,1049,1050,1051,1052,
1060,1061,1062,1063,1064,
1072,1073,1074,1075,1076,
1084,1085,1086,1087,1088,
1096,1097,1098,1099,1100
221,
473,474,475,476,477,
485,486,487,488,489,
497,498,499,500,501,
509,510,511,512,513,
521,522,523,524,525,
617,618,619,620,621,
629,630,631,632,633,
641,642,643,644,645,
653,654,655,656,657,
665,666,667,668,669,
761,762,763,764,765,
773,774,775,776,777,
785,786,787,788,789,
797,798,799,800,801,
809,810,811,812,813,
905,906,907,908,909,
917,918,919,920,921,
929,930,931,932,933,
941,942,943,944,945,
953,954,955,956,957,
1049,1050,1051,1052,1053,
1061,1062,1063,1064,1065,
1073,1074,1075,1076,1077,
1085,1086,1087,1088,1089,
1097,1098,1099,1100,1101
222,
474,475,476,477,478,
486,487,488,489,490,
498,499,500,501,502,
510,511,512,513,514,
522,523,524,525,526,
618,619,620,621,622,
630,631,632,633,634,
642,643,644,645,646,
654,655,656,657,658,
666,667,668,669,670,
762,763,764,765,766,
774,775,776,777,778,
786,787,788,789,790,
798,799,800,801,802,
810,811,812,813,814,
906,907,908,909,910,
918,919,920,921,922,
930,931,932,933,934,
942,943,944,945,946,
954,955,956,957,958,
1050,1051,1052,1053,1054,
1062,1063,1064,1065,1066,
1074,1075,1076,1077,1078,
1086,1087,1088,1089,1090,
1098,1099,1100,1101,1102
223,
475,476,477,478,479,
487,488,489,490,491,
499,500,501,502,503,
511,512,513,514,515,
523,524,525,526,527,
619,620,621,622,623,
631,632,633,634,635,
643,644,645,646,647,
655,656,657,658,659,
667,668,669,670,671,
763,764,765,766,767,
775,776,777,778,779,
787,788,789,790,791,
799,800,801,802,803,
811,812,813,814,815,
907,908,909,910,911,
919,920,921,922,923,
931,932,933,934,935,
943,944,945,946,947,
955,956,957,958,959,
1051,1052,1053,1054,1055,
1063,1064,1065,1066,1067,
1075,1076,1077,1078,1079,
1087,1088,1089,1090,1091,
1099,1100,1101,1102,1103
224,
476,477,478,479,480,
488,489,490,491,492,
500,501,502,503,504,
512,513,514,515,516,
524,525,526,527,528,
620,621,622,623,624,
632,633,634,635,636,
644,645,646,647,648,
656,657,658,659,660,
668,669,670,671,672,
764,765,766,767,768,
776,777,778,779,780,
788,789,790,791,792,
800,801,802,803,804,
812,813,814,815,816,
908,909,910,911,912,
920,921,922,923,924,
932,933,934,935,936,
944,945,946,947,948,
956,957,958,959,960,
1052,1053,1054,1055,1056,
1064,1065,1066,1067,1068,
1076,1077,1078,1079,1080,
1088,1089,1090,1091,1092,
1100,1101,1102,1103,1104
225,
481,482,483,484,485,
493,494,495,496,497,
505,506,507,508,509,
517,518,519,520,521,
529,530,531,532,533,
625,626,627,628,629,
637,638,639,640,641,
649,650,651,652,653,
661,662,663,664,665,
673,674,675,676,677,
769,770,771,772,773,
781,782,783,784,785,
793,794,795,796,797,
805,806,807,808,809,
817,818,819,820,821,
913,914,915,916,917,
925,926,927,928,929,
937,938,939,940,941,
949,950,951,952,953,
961,962,963,964,965,
1057,1058,1059,1060,1061,
1069,1070,1071,1072,1073,
1081,1082,1083,1084,1085,
1093,1094,1095,1096,1097,
1105,1106,1107,1108,1109
226,
482,483,484,485,486,
494,495,496,497,498,
506,507,508,509,510,
518,519,520,521,522,
530,531,532,533,534,
626,627,628,629,630,
638,639,640,641,642,
650,651,652,653,654,
662,663,664,665,666,
674,675,676,677,678,
770,771,772,773,774,
782,783,784,785,786,
794,795,796,797,798,
806,807,808,809,810,
818,819,820,821,822,
914,915,916,917,918,
926,927,928,929,930,
938,939,940,941,942,
950,951,952,953,954,
962,963,964,965,966,
1058,1059,1060,1061,1062,
1070,1071,1072,1073,1074,
1082,1083,1084,1085,1086,
1094,1095,1096,1097,1098,
1106,1107,1108,1109,1110
227,
483,484,485,486,487,
495,496,497,498,499,
507,508,509,510,511,
519,520,521,522,523,
531,532,533,534,535,
627,628,629,630,631,
639,640,641,642,643,
651,652,653,654,655,
663,664,665,666,667,
675,676,677,678,679,
771,772,773,774,775,
783,784,785,786,787,
795,796,797,798,799,
807,808,809,810,811,
819,820,821,822,823,
915,916,917,918,919,
927,928,929,930,931,
939,940,941,942,943,
951,952,953,954,955,
963,964,965,966,967,
1059,1060,1061,1062,1063,
1071,1072,1073,1074,1075,
1083,1084,1085,1086,1087,
1095,1096,1097,1098,1099,
1107,1108,1109,1110,1111
228,
484,485,486,487,488,
496,497,498,499,500,
508,509,510,511,512,
520,521,522,523,524,
532,533,534,535,536,
628,629,630,631,632,
640,641,642,643,644,
652,653,654,655,656,
664,665,666,667,668,
676,677,678,679,680,
772,773,774,775,776,
784,785,786,787,788,
796,797,798,799,800,
808,809,810,811,812,
820,821,822,823,824,
916,917,918,919,920,
928,929,930,931,932,
940,941,942,943,944,
952,953,954,955,956,
964,965,966,967,968,
1060,1061,1062,1063,1064,
1072,1073,1074,1075,1076,
1084,1085,1086,1087,1088,
1096,1097,1098,1099,1100,
1108,1109,1110,1111,1112
229,
485,486,487,488,489,
497,498,499,500,501,
509,510,511,512,513,
521,522,523,524,525,
533,534,535,536,537,
629,630,631,632,633,
641,642,643,644,645,
653,654,655,656,657,
665,666,667,668,669,
677,678,679,680,681,
773,774,775,776,777,
785,786,787,788,789,
797,798,799,800,801,
809,810,811,812,813,
821,822,823,824,825,
917,918,919,920,921,
929,930,931,932,933,
941,942,943,944,945,
953,954,955,956,957,
965,966,967,968,969,
1061,1062,1063,1064,1065,
1073,1074,1075,1076,1077,
1085,1086,1087,1088,1089,
1097,1098,1099,1100,1101,
1109,1110,1111,1112,1113
230,
486,487,488,489,490,
498,499,500,501,502,
510,511,512,513,514,
522,523,524,525,526,
534,535,536,537,538,
630,631,632,633,634,
642,643,644,645,646,
654,655,656,657,658,
666,667,668,669,670,
678,679,680,681,682,
774,775,776,777,778,
786,787,788,789,790,
798,799,800,801,802,
810,811,812,813,814,
822,823,824,825,826,
918,919,920,921,922,
930,931,932,933,934,
942,943,944,945,946,
954,955,956,957,958,
966,967,968,969,970,
1062,1063,1064,1065,1066,
1074,1075,1076,1077,1078,
1086,1087,1088,1089,1090,
1098,1099,1100,1101,1102,
1110,1111,1112,1113,1114
231,
487,488,489,490,491,
499,500,501,502,503,
511,512,513,514,515,
523,524,525,526,527,
535,536,537,538,539,
631,632,633,634,635,
643,644,645,646,647,
655,656,657,658,659,
667,668,669,670,671,
679,680,681,682,683,
775,776,777,778,779,
787,788,789,790,791,
799,800,801,802,803,
811,812,813,814,815,
823,824,825,826,827,
919,920,921,922,923,
931,932,933,934,935,
943,944,945,946,947,
955,956,957,958,959,
967,968,969,970,971,
1063,1064,1065,1066,1067,
1075,1076,1077,1078,1079,
1087,1088,1089,1090,1091,
1099,1100,1101,1102,1103,
1111,1112,1113,1114,1115
232,
488,489,490,491,492,
500,501,502,503,504,
512,513,514,515,516,
524,525,526,527,528,
536,537,538,539,540,
632,633,634,635,636,
644,645,646,647,648,
656,657,658,659,660,
668,669,670,671,672,
680,681,682,683,684,
776,777,778,779,780,
788,789,790,791,792,
800,801,802,803,804,
812,813,814,815,816,
824,825,826,827,828,
920,921,922,923,924,
932,933,934,935,936,
944,945,946,947,948,
956,957,958,959,960,
968,969,970,971,972,
1064,1065,1066,1067,1068,
1076,1077,1078,1079,1080,
1088,1089,1090,1091,1092,
1100,1101,1102,1103,1104,
1112,1113,1114,1115,1116
233,
493,494,495,496,497,
505,506,507,508,509,
517,518,519,520,521,
529,530,531,532,533,
541,542,543,544,545,
637,638,639,640,641,
649,650,651,652,653,
661,662,663,664,665,
673,674,675,676,677,
685,686,687,688,689,
781,782,783,784,785,
793,794,795,796,797,
805,806,807,808,809,
817,818,819,820,821,
829,830,831,832,833,
925,926,927,928,929,
937,938,939,940,941,
949,950,951,952,953,
961,962,963,964,965,
973,974,975,976,977,
1069,1070,1071,1072,1073,
1081,1082,1083,1084,1085,
1093,1094,1095,1096,1097,
1105,1106,1107,1108,1109,
1117,1118,1119,1120,1121
234,
494,495,496,497,498,
506,507,508,509,510,
518,519,520,521,522,
530,531,532,533,534,
542,543,544,545,546,
638,639,640,641,642,
650,651,652,653,654,
662,663,664,665,666,
674,675,676,677,678,
686,687,688,689,690,
782,783,784,785,786,
794,795,796,797,798,
806,807,808,809,810,
818,819,820,821,822,
830,831,832,833,834,
926,927,928,929,930,
938,939,940,941,942,
950,951,952,953,954,
962,963,964,965,966,
974,975,976,977,978,
1070,1071,1072,1073,1074,
1082,1083,1084,1085,1086,
1094,1095,1096,1097,1098,
1106,1107,1108,1109,1110,
1118,1119,1120,1121,1122
235,
495,496,497,498,499,
507,508,509,510,511,
519,520,521,522,523,
531,532,533,534,535,
543,544,545,546,547,
639,640,641,642,643,
651,652,653,654,655,
663,664,665,666,667,
675,676,677,678,679,
687,688,689,690,691,
783,784,785,786,787,
795,796,797,798,799,
807,808,809,810,811,
819,820,821,822,823,
831,832,833,834,835,
927,928,929,930,931,
939,940,941,942,943,
951,952,953,954,955,
963,964,965,966,967,
975,976,977,978,979,
1071,1072,1073,1074,1075,
1083,1084,1085,1086,1087,
1095,1096,1097,1098,1099,
1107,1108,1109,1110,1111,
1119,1120,1121,1122,1123
236,
496,497,498,499,500,
508,509,510,511,512,
520,521,522,523,524,
532,533,534,535,536,
544,545,546,547,548,
640,641,642,643,644,
652,653,654,655,656,
664,665,666,667,668,
676,677,678,679,680,
688,689,690,691,692,
784,785,786,787,788,
796,797,798,799,800,
808,809,810,811,812,
820,821,822,823,824,
832,833,834,835,836,
928,929,930,931,932,
940,941,942,943,944,
952,953,954,955,956,
964,965,966,967,968,
976,977,978,979,980,
1072,1073,1074,1075,1076,
1084,1085,1086,1087,1088,
1096,1097,1098,1099,1100,
1108,1109,1110,1111,1112,
1120,1121,1122,1123,1124
237,
497,498,499,500,501,
509,510,511,512,513,
521,522,523,524,525,
533,534,535,536,537,
545,546,547,548,549,
641,642,643,644,645,
653,654,655,656,657,
665,666,667,668,669,
677,678,679,680,681,
689,690,691,692,693,
785,786,787,788,789,
797,798,799,800,801,
809,810,811,812,813,
821,822,823,824,825,
833,834,835,836,837,
929,930,931,932,933,
941,942,943,944,945,
953,954,955,956,957,
965,966,967,968,969,
977,978,979,980,981,
1073,1074,1075,1076,1077,
1085,1086,1087,1088,1089,
1097,1098,1099,1100,1101,
1109,1110,1111,1112,1113,
1121,1122,1123,1124,1125
238,
498,499,500,501,502,
510,511,512,513,514,
522,523,524,525,526,
534,535,536,537,538,
546,547,548,549,550,
642,643,644,645,646,
654,655,656,657,658,
666,667,668,669,670,
678,679,680,681,682,
690,691,692,693,694,
786,787,788,789,790,
798,799,800,801,802,
810,811,812,813,814,
822,823,824,825,826,
834,835,836,837,838,
930,931,932,933,934,
942,943,944,945,946,
954,955,956,957,958,
966,967,968,969,970,
978,979,980,981,982,
1074,1075,1076,1077,1078,
1086,1087,1088,1089,1090,
1098,1099,1100,1101,1102,
1110,1111,1112,1113,1114,
1122,1123,1124,1125,1126
239,
499,500,501,502,503,
511,512,513,514,515,
523,524,525,526,527,
535,536,537,538,539,
547,548,549,550,551,
643,644,645,646,647,
655,656,657,658,659,
667,668,669,670,671,
679,680,681,682,683,
691,692,693,694,695,
787,788,789,790,791,
799,800,801,802,803,
811,812,813,814,815,
823,824,825,826,827,
835,836,837,838,839,
931,932,933,934,935,
943,944,945,946,947,
955,956,957,958,959,
967,968,969,970,971,
979,980,981,982,983,
1075,1076,1077,1078,1079,
1087,1088,1089,1090,1091,
1099,1100,1101,1102,1103,
1111,1112,1113,1114,1115,
1123,1124,1125,1126,1127
240,
500,501,502,503,504,
512,513,514,515,516,
524,525,526,527,528,
536,537,538,539,540,
548,549,550,551,552,
644,645,646,647,648,
656,657,658,659,660,
668,669,670,671,672,
680,681,682,683,684,
692,693,694,695,696,
788,789,790,791,792,
800,801,802,803,804,
812,813,814,815,816,
824,825,826,827,828,
836,837,838,839,840,
932,933,934,935,936,
944,945,946,947,948,
956,957,958,959,960,
968,969,970,971,972,
980,981,982,983,984,
1076,1077,1078,1079,1080,
1088,1089,1090,1091,1092,
1100,1101,1102,1103,1104,
1112,1113,1114,1115,1116,
1124,1125,1126,1127,1128
241,
505,506,507,508,509,
517,518,519,520,521,
529,530,531,532,533,
541,542,543,544,545,
553,554,555,556,557,
649,650,651,652,653,
661,662,663,664,665,
673,674,675,676,677,
685,686,687,688,689,
697,698,699,700,701,
793,794,795,796,797,
805,806,807,808,809,
817,818,819,820,821,
829,830,831,832,833,
841,842,843,844,845,
937,938,939,940,941,
949,950,951,952,953,
961,962,963,964,965,
973,974,975,976,977,
985,986,987,988,989,
1081,1082,1083,1084,1085,
1093,1094,1095,1096,1097,
1105,1106,1107,1108,1109,
1117,1118,1119,1120,1121,
1129,1130,1131,1132,1133
242,
506,507,508,509,510,
518,519,520,521,522,
530,531,532,533,534,
542,543,544,545,546,
554,555,556,557,558,
650,651,652,653,654,
662,663,664,665,666,
674,675,676,677,678,
686,687,688,689,690,
698,699,700,701,702,
794,795,796,797,798,
806,807,808,809,810,
818,819,820,821,822,
830,831,832,833,834,
842,843,844,845,846,
938,939,940,941,942,
950,951,952,953,954,
962,963,964,965,966,
974,975,976,977,978,
986,987,988,989,990,
1082,1083,1084,1085,1086,
1094,1095,1096,1097,1098,
1106,1107,1108,1109,1110,
1118,1119,1120,1121,1122,
1130,1131,1132,1133,1134
243,
507,508,509,510,511,
519,520,521,522,523,
531,532,533,534,535,
543,544,545,546,547,
555,556,557,558,559,
651,652,653,654,655,
663,664,665,666,667,
675,676,677,678,679,
687,688,689,690,691,
699,700,701,702,703,
795,796,797,798,799,
807,808,809,810,811,
819,820,821,822,823,
831,832,833,834,835,
843,844,845,846,847,
939,940,941,942,943,
951,952,953,954,955,
963,964,965,966,967,
975,976,977,978,979,
987,988,989,990,991,
1083,1084,1085,1086,1087,
1095,1096,1097,1098,1099,
1107,1108,1109,1110,1111,
1119,1120,1121,1122,1123,
1131,1132,1133,1134,1135
244,
508,509,510,511,512,
520,521,522,523,524,
532,533,534,535,536,
544,545,546,547,548,
556,557,558,559,560,
652,653,654,655,656,
664,665,666,667,668,
676,677,678,679,680,
688,689,690,691,692,
700,701,702,703,704,
796,797,798,799,800,
808,809,810,811,812,
820,821,822,823,824,
832,833,834,835,836,
844,845,846,847,848,
940,941,942,943,944,
952,953,954,955,956,
964,965,966,967,968,
976,977,978,979,980,
988,989,990,991,992,
1084,1085,1086,1087,1088,
1096,1097,1098,1099,1100,
1108,1109,1110,1111,1112,
1120,1121,1122,1123,1124,
1132,1133,1134,1135,1136
245,
509,510,511,512,513,
521,522,523,524,525,
533,534,535,536,537,
545,546,547,548,549,
557,558,559,560,561,
653,654,655,656,657,
665,666,667,668,669,
677,678,679,680,681,
689,690,691,692,693,
701,702,703,704,705,
797,798,799,800,801,
809,810,811,812,813,
821,822,823,824,825,
833,834,835,836,837,
845,846,847,848,849,
941,942,943,944,945,
953,954,955,956,957,
965,966,967,968,969,
977,978,979,980,981,
989,990,991,992,993,
1085,1086,1087,1088,1089,
1097,1098,1099,1100,1101,
1109,1110,1111,1112,1113,
1121,1122,1123,1124,1125,
1133,1134,1135,1136,1137
246,
510,511,512,513,514,
522,523,524,525,526,
534,535,536,537,538,
546,547,548,549,550,
558,559,560,561,562,
654,655,656,657,658,
666,667,668,669,670,
678,679,680,681,682,
690,691,692,693,694,
702,703,704,705,706,
798,799,800,801,802,
810,811,812,813,814,
822,823,824,825,826,
834,835,836,837,838,
846,847,848,849,850,
942,943,944,945,946,
954,955,956,957,958,
966,967,968,969,970,
978,979,980,981,982,
990,991,992,993,994,
1086,1087,1088,1089,1090,
1098,1099,1100,1101,1102,
1110,1111,1112,1113,1114,
1122,1123,1124,1125,1126,
1134,1135,1136,1137,1138
247,
511,512,513,514,515,
523,524,525,526,527,
535,536,537,538,539,
547,548,549,550,551,
559,560,561,562,563,
655,656,657,658,659,
667,668,669,670,671,
679,680,681,682,683,
691,692,693,694,695,
703,704,705,706,707,
799,800,801,802,803,
811,812,813,814,815,
823,824,825,826,827,
835,836,837,838,839,
847,848,849,850,851,
943,944,945,946,947,
955,956,957,958,959,
967,968,969,970,971,
979,980,981,982,983,
991,992,993,994,995,
1087,1088,1089,1090,1091,
1099,1100,1101,1102,1103,
1111,1112,1113,1114,1115,
1123,1124,1125,1126,1127,
1135,1136,1137,1138,1139
248,
512,513,514,515,516,
524,525,526,527,528,
536,537,538,539,540,
548,549,550,551,552,
560,561,562,563,564,
656,657,658,659,660,
668,669,670,671,672,
680,681,682,683,684,
692,693,694,695,696,
704,705,706,707,708,
800,801,802,803,804,
812,813,814,815,816,
824,825,826,827,828,
836,837,838,839,840,
848,849,850,851,852,
944,945,946,947,948,
956,957,958,959,960,
968,969,970,971,972,
980,981,982,983,984,
992,993,994,995,996,
1088,1089,1090,1091,1092,
1100,1101,1102,1103,1104,
1112,1113,1114,1115,1116,
1124,1125,1126,1127,1128,
1136,1137,1138,1139,1140
249,
517,518,519,520,521,
529,530,531,532,533,
541,542,543,544,545,
553,554,555,556,557,
565,566,567,568,569,
661,662,663,664,665,
673,674,675,676,677,
685,686,687,688,689,
697,698,699,700,701,
709,710,711,712,713,
805,806,807,808,809,
817,818,819,820,821,
829,830,831,832,833,
841,842,843,844,845,
853,854,855,856,857,
949,950,951,952,953,
961,962,963,964,965,
973,974,975,976,977,
985,986,987,988,989,
997,998,999,1000,1001,
1093,1094,1095,1096,1097,
1105,1106,1107,1108,1109,
1117,1118,1119,1120,1121,
1129,1130,1131,1132,1133,
1141,1142,1143,1144,1145
250,
518,519,520,521,522,
530,531,532,533,534,
542,543,544,545,546,
554,555,556,557,558,
566,567,568,569,570,
662,663,664,665,666,
674,675,676,677,678,
686,687,688,689,690,
698,699,700,701,702,
710,711,712,713,714,
806,807,808,809,810,
818,819,820,821,822,
830,831,832,833,834,
842,843,844,845,846,
854,855,856,857,858,
950,951,952,953,954,
962,963,964,965,966,
974,975,976,977,978,
986,987,988,989,990,
998,999,1000,1001,1002,
1094,1095,1096,1097,1098,
1106,1107,1108,1109,1110,
1118,1119,1120,1121,1122,
1130,1131,1132,1133,1134,
1142,1143,1144,1145,1146
251,
519,520,521,522,523,
531,532,533,534,535,
543,544,545,546,547,
555,556,557,558,559,
567,568,569,570,571,
663,664,665,666,667,
675,676,677,678,679,
687,688,689,690,691,
699,700,701,702,703,
711,712,713,714,715,
807,808,809,810,811,
819,820,821,822,823,
831,832,833,834,835,
843,844,845,846,847,
855,856,857,858,859,
951,952,953,954,955,
963,964,965,966,967,
975,976,977,978,979,
987,988,989,990,991,
999,1000,1001,1002,1003,
1095,1096,1097,1098,1099,
1107,1108,1109,1110,1111,
1119,1120,1121,1122,1123,
1131,1132,1133,1134,1135,
1143,1144,1145,1146,1147
252,
520,521,522,523,524,
532,533,534,535,536,
544,545,546,547,548,
556,557,558,559,560,
568,569,570,571,572,
664,665,666,667,668,
676,677,678,679,680,
688,689,690,691,692,
700,701,702,703,704,
712,713,714,715,716,
808,809,810,811,812,
820,821,822,823,824,
832,833,834,835,836,
844,845,846,847,848,
856,857,858,859,860,
952,953,954,955,956,
964,965,966,967,968,
976,977,978,979,980,
988,989,990,991,992,
1000,1001,1002,1003,1004,
1096,1097,1098,1099,1100,
1108,1109,1110,1111,1112,
1120,1121,1122,1123,1124,
1132,1133,1134,1135,1136,
1144,1145,1146,1147,1148
253,
521,522,523,524,525,
533,534,535,536,537,
545,546,547,548,549,
557,558,559,560,561,
569,570,571,572,573,
665,666,667,668,669,
677,678,679,680,681,
689,690,691,692,693,
701,702,703,704,705,
713,714,715,716,717,
809,810,811,812,813,
821,822,823,824,825,
833,834,835,836,837,
845,846,847,848,849,
857,858,859,860,861,
953,954,955,956,957,
965,966,967,968,969,
977,978,979,980,981,
989,990,991,992,993,
1001,1002,1003,1004,1005,
1097,1098,1099,1100,1101,
1109,1110,1111,1112,1113,
1121,1122,1123,1124,1125,
1133,1134,1135,1136,1137,
1145,1146,1147,1148,1149
254,
522,523,524,525,526,
534,535,536,537,538,
546,547,548,549,550,
558,559,560,561,562,
570,571,572,573,574,
666,667,668,669,670,
678,679,680,681,682,
690,691,692,693,694,
702,703,704,705,706,
714,715,716,717,718,
810,811,812,813,814,
822,823,824,825,826,
834,835,836,837,838,
846,847,848,849,850,
858,859,860,861,862,
954,955,956,957,958,
966,967,968,969,970,
978,979,980,981,982,
990,991,992,993,994,
1002,1003,1004,1005,1006,
1098,1099,1100,1101,1102,
1110,1111,1112,1113,1114,
1122,1123,1124,1125,1126,
1134,1135,1136,1137,1138,
1146,1147,1148,1149,1150
255,
523,524,525,526,527,
535,536,537,538,539,
547,548,549,550,551,
559,560,561,562,563,
571,572,573,574,575,
667,668,669,670,671,
679,680,681,682,683,
691,692,693,694,695,
703,704,705,706,707,
715,716,717,718,719,
811,812,813,814,815,
823,824,825,826,827,
835,836,837,838,839,
847,848,849,850,851,
859,860,861,862,863,
955,956,957,958,959,
967,968,969,970,971,
979,980,981,982,983,
991,992,993,994,995,
1003,1004,1005,1006,1007,
1099,1100,1101,1102,1103,
1111,1112,1113,1114,1115,
1123,1124,1125,1126,1127,
1135,1136,1137,1138,1139,
1147,1148,1149,1150,1151
256,
524,525,526,527,528,
536,537,538,539,540,
548,549,550,551,552,
560,561,562,563,564,
572,573,574,575,576,
668,669,670,671,672,
680,681,682,683,684,
692,693,694,695,696,
704,705,706,707,708,
716,717,718,719,720,
812,813,814,815,816,
824,825,826,827,828,
836,837,838,839,840,
848,849,850,851,852,
860,861,862,863,864,
956,957,958,959,960,
968,969,970,971,972,
980,981,982,983,984,
992,993,994,995,996,
1004,1005,1006,1007,1008,
1100,1101,1102,1103,1104,
1112,1113,1114,1115,1116,
1124,1125,1126,1127,1128,
1136,1137,1138,1139,1140,
1148,1149,1150,1151,1152
257,
577,578,579,580,581,
589,590,591,592,593,
601,602,603,604,605,
613,614,615,616,617,
625,626,627,628,629,
721,722,723,724,725,
733,734,735,736,737,
745,746,747,748,749,
757,758,759,760,761,
769,770,771,772,773,
865,866,867,868,869,
877,878,879,880,881,
889,890,891,892,893,
901,902,903,904,905,
913,914,915,916,917,
1009,1010,1011,1012,1013,
1021,1022,1023,1024,1025,
1033,1034,1035,1036,1037,
1045,1046,1047,1048,1049,
1057,1058,1059,1060,1061,
1153,1154,1155,1156,1157,
1165,1166,1167,1168,1169,
1177,1178,1179,1180,1181,
1189,1190,1191,1192,1193,
1201,1202,1203,1204,1205
258,
578,579,580,581,582,
590,591,592,593,594,
602,603,604,605,606,
614,615,616,617,618,
626,627,628,629,630,
722,723,724,725,726,
734,735,736,737,738,
746,747,748,749,750,
758,759,760,761,762,
770,771,772,773,774,
866,867,868,869,870,
878,879,880,881,882,
890,891,892,893,894,
902,903,904,905,906,
914,915,916,917,918,
1010,1011,1012,1013,1014,
1022,1023,1024,1025,1026,
1034,1035,1036,1037,1038,
1046,1047,1048,1049,1050,
1058,1059,1060,1061,1062,
1154,1155,1156,1157,1158,
1166,1167,1168,1169,1170,
1178,1179,1180,1181,1182,
1190,1191,1192,1193,1194,
1202,1203,1204,1205,1206
259,
579,580,581,582,583,
591,592,593,594,595,
603,604,605,606,607,
615,616,617,618,619,
627,628,629,630,631,
723,724,725,726,727,
735,736,737,738,739,
747,748,749,750,751,
759,760,761,762,763,
771,772,773,774,775,
867,868,869,870,871,
879,880,881,882,883,
891,892,893,894,895,
903,904,905,906,907,
915,916,917,918,919,
1011,1012,1013,1014,1015,
1023,1024,1025,1026,1027,
1035,1036,1037,1038,1039,
1047,1048,1049,1050,1051,
1059,1060,1061,1062,1063,
1155,1156,1157,1158,1159,
1167,1168,1169,1170,1171,
1179,1180,1181,1182,1183,
1191,1192,1193,1194,1195,
1203,1204,1205,1206,1207
260,
580,581,582,583,584,
592,593,594,595,596,
604,605,606,607,608,
616,617,618,619,620,
628,629,630,631,632,
724,725,726,727,728,
736,737,738,739,740,
748,749,750,751,752,
760,761,762,763,764,
772,773,774,775,776,
868,869,870,871,872,
880,881,882,883,884,
892,893,894,895,896,
904,905,906,907,908,
916,917,918,919,920,
1012,1013,1014,1015,1016,
1024,1025,1026,1027,1028,
1036,1037,1038,1039,1040,
1048,1049,1050,1051,1052,
1060,1061,1062,1063,1064,
1156,1157,1158,1159,1160,
1168,1169,1170,1171,1172,
1180,1181,1182,1183,1184,
1192,1193,1194,1195,1196,
1204,1205,1206,1207,1208
261,
581,582,583,584,585,
593,594,595,596,597,
605,606,607,608,609,
617,618,619,620,621,
629,630,631,632,633,
725,726,727,728,729,
737,738,739,740,741,
749,750,751,752,753,
761,762,763,764,765,
773,774,775,776,777,
869,870,871,872,873,
881,882,883,884,885,
893,894,895,896,897,
905,906,907,908,909,
917,918,919,920,921,
1013,1014,1015,1016,1017,
1025,1026,1027,1028,1029,
1037,1038,1039,1040,1041,
1049,1050,1051,1052,1053,
1061,1062,1063,1064,1065,
1157,1158,1159,1160,1161,
1169,1170,1171,1172,1173,
1181,1182,1183,1184,1185,
1193,1194,1195,1196,1197,
1205,1206,1207,1208,1209
262,
582,583,584,585,586,
594,595,596,597,598,
606,607,608,609,610,
618,619,620,621,622,
630,631,632,633,634,
726,727,728,729,730,
738,739,740,741,742,
750,751,752,753,754,
762,763,764,765,766,
774,775,776,777,778,
870,871,872,873,874,
882,883,884,885,886,
894,895,896,897,898,
906,907,908,909,910,
918,919,920,921,922,
1014,1015,1016,1017,1018,
1026,1027,1028,1029,1030,
1038,1039,1040,1041,1042,
1050,1051,1052,1053,1054,
1062,1063,1064,1065,1066,
1158,1159,1160,1161,1162,
1170,1171,1172,1173,1174,
1182,1183,1184,1185,1186,
1194,1195,1196,1197,1198,
1206,1207,1208,1209,1210
263,
583,584,585,586,587,
595,596,597,598,599,
607,608,609,610,611,
619,620,621,622,623,
631,632,633,634,635,
727,728,729,730,731,
739,740,741,742,743,
751,752,753,754,755,
763,764,765,766,767,
775,776,777,778,779,
871,872,873,874,875,
883,884,885,886,887,
895,896,897,898,899,
907,908,909,910,911,
919,920,921,922,923,
1015,1016,1017,1018,1019,
1027,1028,1029,1030,1031,
1039,1040,1041,1042,1043,
1051,1052,1053,1054,1055,
1063,1064,1065,1066,1067,
1159,1160,1161,1162,1163,
1171,1172,1173,1174,1175,
1183,1184,1185,1186,1187,
1195,1196,1197,1198,1199,
1207,1208,1209,1210,1211
264,
584,585,586,587,588,
596,597,598,599,600,
608,609,610,611,612,
620,621,622,623,624,
632,633,634,635,636,
728,729,730,731,732,
740,741,742,743,744,
752,753,754,755,756,
764,765,766,767,768,
776,777,778,779,780,
872,873,874,875,876,
884,885,886,887,888,
896,897,898,899,900,
908,909,910,911,912,
920,921,922,923,924,
1016,1017,1018,1019,1020,
1028,1029,1030,1031,1032,
1040,1041,1042,1043,1044,
1052,1053,1054,1055,1056,
1064,1065,1066,1067,1068,
1160,1161,1162,1163,1164,
1172,1173,1174,1175,1176,
1184,1185,1186,1187,1188,
1196,1197,1198,1199,1200,
1208,1209,1210,1211,1212
265,
589,590,591,592,593,
601,602,603,604,605,
613,614,615,616,617,
625,626,627,628,629,
637,638,639,640,641,
733,734,735,736,737,
745,746,747,748,749,
757,758,759,760,761,
769,770,771,772,773,
781,782,783,784,785,
877,878,879,880,881,
889,890,891,892,893,
901,902,903,904,905,
913,914,915,916,917,
925,926,927,928,929,
1021,1022,1023,1024,1025,
1033,1034,1035,1036,1037,
1045,1046,1047,1048,1049,
1057,1058,1059,1060,1061,
1069,1070,1071,1072,1073,
1165,1166,1167,1168,1169,
1177,1178,1179,1180,1181,
1189,1190,1191,1192,1193,
1201,1202,1203,1204,1205,
1213,1214,1215,1216,1217
266,
590,591,592,593,594,
602,603,604,605,606,
614,615,616,617,618,
626,627,628,629,630,
638,639,640,641,642,
734,735,736,737,738,
746,747,748,749,750,
758,759,760,761,762,
770,771,772,773,774,
782,783,784,785,786,
878,879,880,881,882,
890,891,892,893,894,
902,903,904,905,906,
914,915,916,917,918,
926,927,928,929,930,
1022,1023,1024,1025,1026,
1034,1035,1036,1037,1038,
1046,1047,1048,1049,1050,
1058,1059,1060,1061,1062,
1070,1071,1072,1073,1074,
1166,1167,1168,1169,1170,
1178,1179,1180,1181,1182,
1190,1191,1192,1193,1194,
1202,1203,1204,1205,1206,
1214,1215,1216,1217,1218
267,
591,592,593,594,595,
603,604,605,606,607,
615,616,617,618,619,
627,628,629,630,631,
639,640,641,642,643,
735,736,737,738,739,
747,748,749,750,751,
759,760,761,762,763,
771,772,773,774,775,
783,784,785,786,787,
879,880,881,882,883,
891,892,893,894,895,
903,904,905,906,907,
915,916,917,918,919,
927,928,929,930,931,
1023,1024,1025,1026,1027,
1035,1036,1037,1038,1039,
1047,1048,1049,1050,1051,
1059,1060,1061,1062,1063,
1071,1072,1073,1074,1075,
1167,1168,1169,1170,1171,
1179,1180,1181,1182,1183,
1191,1192,1193,1194,1195,
1203,1204,1205,1206,1207,
1215,1216,1217,1218,1219
268,
592,593,594,595,596,
604,605,606,607,608,
616,617,618,619,620,
628,629,630,631,632,
640,641,642,643,644,
736,737,738,739,740,
748,749,750,751,752,
760,761,762,763,764,
772,773,774,775,776,
784,785,786,787,788,
880,881,882,883,884,
892,893,894,895,896,
904,905,906,907,908,
916,917,918,919,920,
928,929,930,931,932,
1024,1025,1026,1027,1028,
1036,1037,1038,1039,1040,
1048,1049,1050,1051,1052,
1060,1061,1062,1063,1064,
1072,1073,1074,1075,1076,
1168,1169,1170,1171,1172,
1180,1181,1182,1183,1184,
1192,1193,1194,1195,1196,
1204,1205,1206,1207,1208,
1216,1217,1218,1219,1220
269,
593,594,595,596,597,
605,606,607,608,609,
617,618,619,620,621,
629,630,631,632,633,
641,642,643,644,645,
737,738,739,740,741,
749,750,751,752,753,
761,762,763,764,765,
773,774,775,776,777,
785,786,787,788,789,
881,882,883,884,885,
893,894,895,896,897,
905,906,907,908,909,
917,918,919,920,921,
929,930,931,932,933,
1025,1026,1027,1028,1029,
1037,1038,1039,1040,1041,
1049,1050,1051,1052,1053,
1061,1062,1063,1064,1065,
1073,1074,1075,1076,1077,
1169,1170,1171,1172,1173,
1181,1182,1183,1184,1185,
1193,1194,1195,1196,1197,
1205,1206,1207,1208,1209,
1217,1218,1219,1220,1221
270,
594,595,596,597,598,
606,607,608,609,610,
618,619,620,621,622,
630,631,632,633,634,
642,643,644,645,646,
738,739,740,741,742,
750,751,752,753,754,
762,763,764,765,766,
774,775,776,777,778,
786,787,788,789,790,
882,883,884,885,886,
894,895,896,897,898,
906,907,908,909,910,
918,919,920,921,922,
930,931,932,933,934,
1026,1027,1028,1029,1030,
1038,1039,1040,1041,1042,
1050,1051,1052,1053,1054,
1062,1063,1064,1065,1066,
1074,1075,1076,1077,1078,
1170,1171,1172,1173,1174,
1182,1183,1184,1185,1186,
1194,1195,1196,1197,1198,
1206,1207,1208,1209,1210,
1218,1219,1220,1221,1222
271,
595,596,597,598,599,
607,608,609,610,611,
619,620,621,622,623,
631,632,633,634,635,
643,644,645,646,647,
739,740,741,742,743,
751,752,753,754,755,
763,764,765,766,767,
775,776,777,778,779,
787,788,789,790,791,
883,884,885,886,887,
895,896,897,898,899,
907,908,909,910,911,
919,920,921,922,923,
931,932,933,934,935,
1027,1028,1029,1030,1031,
1039,1040,1041,1042,1043,
1051,1052,1053,1054,1055,
1063,1064,1065,1066,1067,
1075,1076,1077,1078,1079,
1171,1172,1173,1174,1175,
1183,1184,1185,1186,1187,
1195,1196,1197,1198,1199,
1207,1208,1209,1210,1211,
1219,1220,1221,1222,1223
272,
596,597,598,599,600,
608,609,610,611,612,
620,621,622,623,624,
632,633,634,635,636,
644,645,646,647,648,
740,741,742,743,744,
752,753,754,755,756,
764,765,766,767,768,
776,777,778,779,780,
788,789,790,791,792,
884,885,886,887,888,
896,897,898,899,900,
908,909,910,911,912,
920,921,922,923,924,
932,933,934,935,936,
1028,1029,1030,1031,1032,
1040,1041,1042,1043,1044,
1052,1053,1054,1055,1056,
1064,1065,1066,1067,1068,
1076,1077,1078,1079,1080,
1172,1173,1174,1175,1176,
1184,1185,1186,1187,1188,
1196,1197,1198,1199,1200,
1208,1209,1210,1211,1212,
1220,1221,1222,1223,1224
273,
601,602,603,604,605,
613,614,615,616,617,
625,626,627,628,629,
637,638,639,640,641,
649,650,651,652,653,
745,746,747,748,749,
757,758,759,760,761,
769,770,771,772,773,
781,782,783,784,785,
793,794,795,796,797,
889,890,891,892,893,
901,902,903,904,905,
913,914,915,916,917,
925,926,927,928,929,
937,938,939,940,941,
1033,1034,1035,1036,1037,
1045,1046,1047,1048,1049,
1057,1058,1059,1060,1061,
1069,1070,1071,1072,1073,
1081,1082,1083,1084,1085,
1177,1178,1179,1180,1181,
1189,1190,1191,1192,1193,
1201,1202,1203,1204,1205,
1213,1214,1215,1216,1217,
1225,1226,1227,1228,1229
274,
602,603,604,605,606,
614,615,616,617,618,
626,627,628,629,630,
638,639,640,641,642,
650,651,652,653,654,
746,747,748,749,750,
758,759,760,761,762,
770,771,772,773,774,
782,783,784,785,786,
794,795,796,797,798,
890,891,892,893,894,
902,903,904,905,906,
914,915,916,917,918,
926,927,928,929,930,
938,939,940,941,942,
1034,1035,1036,1037,1038,
1046,1047,1048,1049,1050,
1058,1059,1060,1061,1062,
1070,1071,1072,1073,1074,
1082,1083,1084,1085,1086,
1178,1179,1180,1181,1182,
1190,1191,1192,1193,1194,
1202,1203,1204,1205,1206,
1214,1215,1216,1217,1218,
1226,1227,1228,1229,1230
275,
603,604,605,606,607,
615,616,617,618,619,
627,628,629,630,631,
639,640,641,642,643,
651,652,653,654,655,
747,748,749,750,751,
759,760,761,762,763,
771,772,773,774,775,
783,784,785,786,787,
795,796,797,798,799,
891,892,893,894,895,
903,904,905,906,907,
915,916,917,918,919,
927,928,929,930,931,
939,940,941,942,943,
1035,1036,1037,1038,1039,
1047,1048,1049,1050,1051,
1059,1060,1061,1062,1063,
1071,1072,1073,1074,1075,
1083,1084,1085,1086,1087,
1179,1180,1181,1182,1183,
1191,1192,1193,1194,1195,
1203,1204,1205,1206,1207,
1215,1216,1217,1218,1219,
1227,1228,1229,1230,1231
276,
604,605,606,607,608,
616,617,618,619,620,
628,629,630,631,632,
640,641,642,643,644,
652,653,654,655,656,
748,749,750,751,752,
760,761,762,763,764,
772,773,774,775,776,
784,785,786,787,788,
796,797,798,799,800,
892,893,894,895,896,
904,905,906,907,908,
916,917,918,919,920,
928,929,930,931,932,
940,941,942,943,944,
1036,1037,1038,1039,1040,
1048,1049,1050,1051,1052,
1060,1061,1062,1063,1064,
1072,1073,1074,1075,1076,
1084,1085,1086,1087,1088,
1180,1181,1182,1183,1184,
1192,1193,1194,1195,1196,
1204,1205,1206,1207,1208,
1216,1217,1218,1219,1220,
1228,1229,1230,1231,1232
277,
605,606,607,608,609,
617,618,619,620,621,
629,630,631,632,633,
641,642,643,644,645,
653,654,655,656,657,
749,750,751,752,753,
761,762,763,764,765,
773,774,775,776,777,
785,786,787,788,789,
797,798,799,800,801,
893,894,895,896,897,
905,906,907,908,909,
917,918,919,920,921,
929,930,931,932,933,
941,942,943,944,945,
1037,1038,1039,1040,1041,
1049,1050,1051,1052,1053,
1061,1062,1063,1064,1065,
1073,1074,1075,1076,1077,
1085,1086,1087,1088,1089,
1181,1182,1183,1184,1185,
1193,1194,1195,1196,1197,
1205,1206,1207,1208,1209,
1217,1218,1219,1220,1221,
1229,1230,1231,1232,1233
278,
606,607,608,609,610,
618,619,620,621,622,
630,631,632,633,634,
642,643,644,645,646,
654,655,656,657,658,
750,751,752,753,754,
762,763,764,765,766,
774,775,776,777,778,
786,787,788,789,790,
798,799,800,801,802,
894,895,896,897,898,
906,907,908,909,910,
918,919,920,921,922,
930,931,932,933,934,
942,943,944,945,946,
1038,1039,1040,1041,1042,
1050,1051,1052,1053,1054,
1062,1063,1064,1065,1066,
1074,1075,1076,1077,1078,
1086,1087,1088,1089,1090,
1182,1183,1184,1185,1186,
1194,1195,1196,1197,1198,
1206,1207,1208,1209,1210,
1218,1219,1220,1221,1222,
1230,1231,1232,1233,1234
279,
607,608,609,610,611,
619,620,621,622,623,
631,632,633,634,635,
643,644,645,646,647,
655,656,657,658,659,
751,752,753,754,755,
763,764,765,766,767,
775,776,777,778,779,
787,788,789,790,791,
799,800,801,802,803,
895,896,897,898,899,
907,908,909,910,911,
919,920,921,922,923,
931,932,933,934,935,
943,944,945,946,947,
1039,1040,1041,1042,1043,
1051,1052,1053,1054,1055,
1063,1064,1065,1066,1067,
1075,1076,1077,1078,1079,
1087,1088,1089,1090,1091,
1183,1184,1185,1186,1187,
1195,1196,1197,1198,1199,
1207,1208,1209,1210,1211,
1219,1220,1221,1222,1223,
1231,1232,1233,1234,1235
280,
608,609,610,611,612,
620,621,622,623,624,
632,633,634,635,636,
644,645,646,647,648,
656,657,658,659,660,
752,753,754,755,756,
764,765,766,767,768,
776,777,778,779,780,
788,789,790,791,792,
800,801,802,803,804,
896,897,898,899,900,
908,909,910,911,912,
920,921,922,923,924,
932,933,934,935,936,
944,945,946,947,948,
1040,1041,1042,1043,1044,
1052,1053,1054,1055,1056,
1064,1065,1066,1067,1068,
1076,1077,1078,1079,1080,
1088,1089,1090,1091,1092,
1184,1185,1186,1187,1188,
1196,1197,1198,1199,1200,
1208,1209,1210,1211,1212,
1220,1221,1222,1223,1224,
1232,1233,1234,1235,1236
281,
613,614,615,616,617,
625,626,627,628,629,
637,638,639,640,641,
649,650,651,652,653,
661,662,663,664,665,
757,758,759,760,761,
769,770,771,772,773,
781,782,783,784,785,
793,794,795,796,797,
805,806,807,808,809,
901,902,903,904,905,
913,914,915,916,917,
925,926,927,928,929,
937,938,939,940,941,
949,950,951,952,953,
1045,1046,1047,1048,1049,
1057,1058,1059,1060,1061,
1069,1070,1071,1072,1073,
1081,1082,1083,1084,1085,
1093,1094,1095,1096,1097,
1189,1190,1191,1192,1193,
1201,1202,1203,1204,1205,
1213,1214,1215,1216,1217,
1225,1226,1227,1228,1229,
1237,1238,1239,1240,1241
282,
614,615,616,617,618,
626,627,628,629,630,
638,639,640,641,642,
650,651,652,653,654,
662,663,664,665,666,
758,759,760,761,762,
770,771,772,773,774,
782,783,784,785,786,
794,795,796,797,798,
806,807,808,809,810,
902,903,904,905,906,
914,915,916,917,918,
926,927,928,929,930,
938,939,940,941,942,
950,951,952,953,954,
1046,1047,1048,1049,1050,
1058,1059,1060,1061,1062,
1070,1071,1072,1073,1074,
1082,1083,1084,1085,1086,
1094,1095,1096,1097,1098,
1190,1191,1192,1193,1194,
1202,1203,1204,1205,1206,
1214,1215,1216,1217,1218,
1226,1227,1228,1229,1230,
1238,1239,1240,1241,1242
283,
615,616,617,618,619,
627,628,629,630,631,
639,640,641,642,643,
651,652,653,654,655,
663,664,665,666,667,
759,760,761,762,763,
771,772,773,774,775,
783,784,785,786,787,
795,796,797,798,799,
807,808,809,810,811,
903,904,905,906,907,
915,916,917,918,919,
927,928,929,930,931,
939,940,941,942,943,
951,952,953,954,955,
1047,1048,1049,1050,1051,
1059,1060,1061,1062,1063,
1071,1072,1073,1074,1075,
1083,1084,1085,1086,1087,
1095,1096,1097,1098,1099,
1191,1192,1193,1194,1195,
1203,1204,1205,1206,1207,
1215,1216,1217,1218,1219,
1227,1228,1229,1230,1231,
1239,1240,1241,1242,1243
284,
616,617,618,619,620,
628,629,630,631,632,
640,641,642,643,644,
652,653,654,655,656,
664,665,666,667,668,
760,761,762,763,764,
772,773,774,775,776,
784,785,786,787,788,
796,797,798,799,800,
808,809,810,811,812,
904,905,906,907,908,
916,917,918,919,920,
928,929,930,931,932,
940,941,942,943,944,
952,953,954,955,956,
1048,1049,1050,1051,1052,
1060,1061,1062,1063,1064,
1072,1073,1074,1075,1076,
1084,1085,1086,1087,1088,
1096,1097,1098,1099,1100,
1192,1193,1194,1195,1196,
1204,1205,1206,1207,1208,
1216,1217,1218,1219,1220,
1228,1229,1230,1231,1232,
1240,1241,1242,1243,1244
285,
617,618,619,620,621,
629,630,631,632,633,
641,642,643,644,645,
653,654,655,656,657,
665,666,667,668,669,
761,762,763,764,765,
773,774,775,776,777,
785,786,787,788,789,
797,798,799,800,801,
809,810,811,812,813,
905,906,907,908,909,
917,918,919,920,921,
929,930,931,932,933,
941,942,943,944,945,
953,954,955,956,957,
1049,1050,1051,1052,1053,
1061,1062,1063,1064,1065,
1073,1074,1075,1076,1077,
1085,1086,1087,1088,1089,
1097,1098,1099,1100,1101,
1193,1194,1195,1196,1197,
1205,1206,1207,1208,1209,
1217,1218,1219,1220,1221,
1229,1230,1231,1232,1233,
1241,1242,1243,1244,1245
286,
618,619,620,621,622,
630,631,632,633,634,
642,643,644,645,646,
654,655,656,657,658,
666,667,668,669,670,
762,763,764,765,766,
774,775,776,777,778,
786,787,788,789,790,
798,799,800,801,802,
810,811,812,813,814,
906,907,908,909,910,
918,919,920,921,922,
930,931,932,933,934,
942,943,944,945,946,
954,955,956,957,958,
1050,1051,1052,1053,1054,
1062,1063,1064,1065,1066,
1074,1075,1076,1077,1078,
1086,1087,1088,1089,1090,
1098,1099,1100,1101,1102,
1194,1195,1196,1197,1198,
1206,1207,1208,1209,1210,
1218,1219,1220,1221,1222,
1230,1231,1232,1233,1234,
1242,1243,1244,1245,1246
287,
619,620,621,622,623,
631,632,633,634,635,
643,644,645,646,647,
655,656,657,658,659,
667,668,669,670,671,
763,764,765,766,767,
775,776,777,778,779,
787,788,789,790,791,
799,800,801,802,803,
811,812,813,814,815,
907,908,909,910,911,
919,920,921,922,923,
931,932,933,934,935,
943,944,945,946,947,
955,956,957,958,959,
1051,1052,1053,1054,1055,
1063,1064,1065,1066,1067,
1075,1076,1077,1078,1079,
1087,1088,1089,1090,1091,
1099,1100,1101,1102,1103,
1195,1196,1197,1198,1199,
1207,1208,1209,1210,1211,
1219,1220,1221,1222,1223,
1231,1232,1233,1234,1235,
1243,1244,1245,1246,1247
288,
620,621,622,623,624,
632,633,634,635,636,
644,645,646,647,648,
656,657,658,659,660,
668,669,670,671,672,
764,765,766,767,768,
776,777,778,779,780,
788,789,790,791,792,
800,801,802,803,804,
812,813,814,815,816,
908,909,910,911,912,
920,921,922,923,924,
932,933,934,935,936,
944,945,946,947,948,
956,957,958,959,960,
1052,1053,1054,1055,1056,
1064,1065,1066,1067,1068,
1076,1077,1078,1079,1080,
1088,1089,1090,1091,1092,
1100,1101,1102,1103,1104,
1196,1197,1198,1199,1200,
1208,1209,1210,1211,1212,
1220,1221,1222,1223,1224,
1232,1233,1234,1235,1236,
1244,1245,1246,1247,1248
289,
625,626,627,628,629,
637,638,639,640,641,
649,650,651,652,653,
661,662,663,664,665,
673,674,675,676,677,
769,770,771,772,773,
781,782,783,784,785,
793,794,795,796,797,
805,806,807,808,809,
817,818,819,820,821,
913,914,915,916,917,
925,926,927,928,929,
937,938,939,940,941,
949,950,951,952,953,
961,962,963,964,965,
1057,1058,1059,1060,1061,
1069,1070,1071,1072,1073,
1081,1082,1083,1084,1085,
1093,1094,1095,1096,1097,
1105,1106,1107,1108,1109,
1201,1202,1203,1204,1205,
1213,1214,1215,1216,1217,
1225,1226,1227,1228,1229,
1237,1238,1239,1240,1241,
1249,1250,1251,1252,1253
290,
626,627,628,629,630,
638,639,640,641,642,
650,651,652,653,654,
662,663,664,665,666,
674,675,676,677,678,
770,771,772,773,774,
782,783,784,785,786,
794,795,796,797,798,
806,807,808,809,810,
818,819,820,821,822,
914,915,916,917,918,
926,927,928,929,930,
938,939,940,941,942,
950,951,952,953,954,
962,963,964,965,966,
1058,1059,1060,1061,1062,
1070,1071,1072,1073,1074,
1082,1083,1084,1085,1086,
1094,1095,1096,1097,1098,
1106,1107,1108,1109,1110,
1202,1203,1204,1205,1206,
1214,1215,1216,1217,1218,
1226,1227,1228,1229,1230,
1238,1239,1240,1241,1242,
1250,1251,1252,1253,1254
291,
627,628,629,630,631,
639,640,641,642,643,
651,652,653,654,655,
663,664,665,666,667,
675,676,677,678,679,
771,772,773,774,775,
783,784,785,786,787,
795,796,797,798,799,
807,808,809,810,811,
819,820,821,822,823,
915,916,917,918,919,
927,928,929,930,931,
939,940,941,942,943,
951,952,953,954,955,
963,964,965,966,967,
1059,1060,1061,1062,1063,
1071,1072,1073,1074,1075,
1083,1084,1085,1086,1087,
1095,1096,1097,1098,1099,
1107,1108,1109,1110,1111,
1203,1204,1205,1206,1207,
1215,1216,1217,1218,1219,
1227,1228,1229,1230,1231,
1239,1240,1241,1242,1243,
1251,1252,1253,1254,1255
292,
628,629,630,631,632,
640,641,642,643,644,
652,653,654,655,656,
664,665,666,667,668,
676,677,678,679,680,
772,773,774,775,776,
784,785,786,787,788,
796,797,798,799,800,
808,809,810,811,812,
820,821,822,823,824,
916,917,918,919,920,
928,929,930,931,932,
940,941,942,943,944,
952,953,954,955,956,
964,965,966,967,968,
1060,1061,1062,1063,1064,
1072,1073,1074,1075,1076,
1084,1085,1086,1087,1088,
1096,1097,1098,1099,1100,
1108,1109,1110,1111,1112,
1204,1205,1206,1207,1208,
1216,1217,1218,1219,1220,
1228,1229,1230,1231,1232,
1240,1241,1242,1243,1244,
1252,1253,1254,1255,1256
293,
629,630,631,632,633,
641,642,643,644,645,
653,654,655,656,657,
665,666,667,668,669,
677,678,679,680,681,
773,774,775,776,777,
785,786,787,788,789,
797,798,799,800,801,
809,810,811,812,813,
821,822,823,824,825,
917,918,919,920,921,
929,930,931,932,933,
941,942,943,944,945,
953,954,955,956,957,
965,966,967,968,969,
1061,1062,1063,1064,1065,
1073,1074,1075,1076,1077,
1085,1086,1087,1088,1089,
1097,1098,1099,1100,1101,
1109,1110,1111,1112,1113,
1205,1206,1207,1208,1209,
1217,1218,1219,1220,1221,
1229,1230,1231,1232,1233,
1241,1242,1243,1244,1245,
1253,1254,1255,1256,1257
294,
630,631,632,633,634,
642,643,644,645,646,
654,655,656,657,658,
666,667,668,669,670,
678,679,680,681,682,
774,775,776,777,778,
786,787,788,789,790,
798,799,800,801,802,
810,811,812,813,814,
822,823,824,825,826,
918,919,920,921,922,
930,931,932,933,934,
942,943,944,945,946,
954,955,956,957,958,
966,967,968,969,970,
1062,1063,1064,1065,1066,
1074,1075,1076,1077,1078,
1086,1087,1088,1089,1090,
1098,1099,1100,1101,1102,
1110,1111,1112,1113,1114,
1206,1207,1208,1209,1210,
1218,1219,1220,1221,1222,
1230,1231,1232,1233,1234,
1242,1243,1244,1245,1246,
1254,1255,1256,1257,1258
295,
631,632,633,634,635,
643,644,645,646,647,
655,656,657,658,659,
667,668,669,670,671,
679,680,681,682,683,
775,776,777,778,779,
787,788,789,790,791,
799,800,801,802,803,
811,812,813,814,815,
823,824,825,826,827,
919,920,921,922,923,
931,932,933,934,935,
943,944,945,946,947,
955,956,957,958,959,
967,968,969,970,971,
1063,1064,1065,1066,1067,
1075,1076,1077,1078,1079,
1087,1088,1089,1090,1091,
1099,1100,1101,1102,1103,
1111,1112,1113,1114,1115,
1207,1208,1209,1210,1211,
1219,1220,1221,1222,1223,
1231,1232,1233,1234,1235,
1243,1244,1245,1246,1247,
1255,1256,1257,1258,1259
296,
632,633,634,635,636,
644,645,646,647,648,
656,657,658,659,660,
668,669,670,671,672,
680,681,682,683,684,
776,777,778,779,780,
788,789,790,791,792,
800,801,802,803,804,
812,813,814,815,816,
824,825,826,827,828,
920,921,922,923,924,
932,933,934,935,936,
944,945,946,947,948,
956,957,958,959,960,
968,969,970,971,972,
1064,1065,1066,1067,1068,
1076,1077,1078,1079,1080,
1088,1089,1090,1091,1092,
1100,1101,1102,1103,1104,
1112,1113,1114,1115,1116,
1208,1209,1210,1211,1212,
1220,1221,1222,1223,1224,
1232,1233,1234,1235,1236,
1244,1245,1246,1247,1248,
1256,1257,1258,1259,1260
297,
637,638,639,640,641,
649,650,651,652,653,
661,662,663,664,665,
673,674,675,676,677,
685,686,687,688,689,
781,782,783,784,785,
793,794,795,796,797,
805,806,807,808,809,
817,818,819,820,821,
829,830,831,832,833,
925,926,927,928,929,
937,938,939,940,941,
949,950,951,952,953,
961,962,963,964,965,
973,974,975,976,977,
1069,1070,1071,1072,1073,
1081,1082,1083,1084,1085,
1093,1094,1095,1096,1097,
1105,1106,1107,1108,1109,
1117,1118,1119,1120,1121,
1213,1214,1215,1216,1217,
1225,1226,1227,1228,1229,
1237,1238,1239,1240,1241,
1249,1250,1251,1252,1253,
1261,1262,1263,1264,1265
298,
638,639,640,641,642,
650,651,652,653,654,
662,663,664,665,666,
674,675,676,677,678,
686,687,688,689,690,
782,783,784,785,786,
794,795,796,797,798,
806,807,808,809,810,
818,819,820,821,822,
830,831,832,833,834,
926,927,928,929,930,
938,939,940,941,942,
950,951,952,953,954,
962,963,964,965,966,
974,975,976,977,978,
1070,1071,1072,1073,1074,
1082,1083,1084,1085,1086,
1094,1095,1096,1097,1098,
1106,1107,1108,1109,1110,
1118,1119,1120,1121,1122,
1214,1215,1216,1217,1218,
1226,1227,1228,1229,1230,
1238,1239,1240,1241,1242,
1250,1251,1252,1253,1254,
1262,1263,1264,1265,1266
299,
639,640,641,642,643,
651,652,653,654,655,
663,664,665,666,667,
675,676,677,678,679,
687,688,689,690,691,
783,784,785,786,787,
795,796,797,798,799,
807,808,809,810,811,
819,820,821,822,823,
831,832,833,834,835,
927,928,929,930,931,
939,940,941,942,943,
951,952,953,954,955,
963,964,965,966,967,
975,976,977,978,979,
1071,1072,1073,1074,1075,
1083,1084,1085,1086,1087,
1095,1096,1097,1098,1099,
1107,1108,1109,1110,1111,
1119,1120,1121,1122,1123,
1215,1216,1217,1218,1219,
1227,1228,1229,1230,1231,
1239,1240,1241,1242,1243,
1251,1252,1253,1254,1255,
1263,1264,1265,1266,1267
300,
640,641,642,643,644,
652,653,654,655,656,
664,665,666,667,668,
676,677,678,679,680,
688,689,690,691,692,
784,785,786,787,788,
796,797,798,799,800,
808,809,810,811,812,
820,821,822,823,824,
832,833,834,835,836,
928,929,930,931,932,
940,941,942,943,944,
952,953,954,955,956,
964,965,966,967,968,
976,977,978,979,980,
1072,1073,1074,1075,1076,
1084,1085,1086,1087,1088,
1096,1097,1098,1099,1100,
1108,1109,1110,1111,1112,
1120,1121,1122,1123,1124,
1216,1217,1218,1219,1220,
1228,1229,1230,1231,1232,
1240,1241,1242,1243,1244,
1252,1253,1254,1255,1256,
1264,1265,1266,1267,1268
301,
641,642,643,644,645,
653,654,655,656,657,
665,666,667,668,669,
677,678,679,680,681,
689,690,691,692,693,
785,786,787,788,789,
797,798,799,800,801,
809,810,811,812,813,
821,822,823,824,825,
833,834,835,836,837,
929,930,931,932,933,
941,942,943,944,945,
953,954,955,956,957,
965,966,967,968,969,
977,978,979,980,981,
1073,1074,1075,1076,1077,
1085,1086,1087,1088,1089,
1097,1098,1099,1100,1101,
1109,1110,1111,1112,1113,
1121,1122,1123,1124,1125,
1217,1218,1219,1220,1221,
1229,1230,1231,1232,1233,
1241,1242,1243,1244,1245,
1253,1254,1255,1256,1257,
1265,1266,1267,1268,1269
302,
642,643,644,645,646,
654,655,656,657,658,
666,667,668,669,670,
678,679,680,681,682,
690,691,692,693,694,
786,787,788,789,790,
798,799,800,801,802,
810,811,812,813,814,
822,823,824,825,826,
834,835,836,837,838,
930,931,932,933,934,
942,943,944,945,946,
954,955,956,957,958,
966,967,968,969,970,
978,979,980,981,982,
1074,1075,1076,1077,1078,
1086,1087,1088,1089,1090,
1098,1099,1100,1101,1102,
1110,1111,1112,1113,1114,
1122,1123,1124,1125,1126,
1218,1219,1220,1221,1222,
1230,1231,1232,1233,1234,
1242,1243,1244,1245,1246,
1254,1255,1256,1257,1258,
1266,1267,1268,1269,1270
303,
643,644,645,646,647,
655,656,657,658,659,
667,668,669,670,671,
679,680,681,682,683,
691,692,693,694,695,
787,788,789,790,791,
799,800,801,802,803,
811,812,813,814,815,
823,824,825,826,827,
835,836,837,838,839,
931,932,933,934,935,
943,944,945,946,947,
955,956,957,958,959,
967,968,969,970,971,
979,980,981,982,983,
1075,1076,1077,1078,1079,
1087,1088,1089,1090,1091,
1099,1100,1101,1102,1103,
1111,1112,1113,1114,1115,
1123,1124,1125,1126,1127,
1219,1220,1221,1222,1223,
1231,1232,1233,1234,1235,
1243,1244,1245,1246,1247,
1255,1256,1257,1258,1259,
1267,1268,1269,1270,1271
304,
644,645,646,647,648,
656,657,658,659,660,
668,669,670,671,672,
680,681,682,683,684,
692,693,694,695,696,
788,789,790,791,792,
800,801,802,803,804,
812,813,814,815,816,
824,825,826,827,828,
836,837,838,839,840,
932,933,934,935,936,
944,945,946,947,948,
956,957,958,959,960,
968,969,970,971,972,
980,981,982,983,984,
1076,1077,1078,1079,1080,
1088,1089,1090,1091,1092,
1100,1101,1102,1103,1104,
1112,1113,1114,1115,1116,
1124,1125,1126,1127,1128,
1220,1221,1222,1223,1224,
1232,1233,1234,1235,1236,
1244,1245,1246,1247,1248,
1256,1257,1258,1259,1260,
1268,1269,1270,1271,1272
305,
649,650,651,652,653,
661,662,663,664,665,
673,674,675,676,677,
685,686,687,688,689,
697,698,699,700,701,
793,794,795,796,797,
805,806,807,808,809,
817,818,819,820,821,
829,830,831,832,833,
841,842,843,844,845,
937,938,939,940,941,
949,950,951,952,953,
961,962,963,964,965,
973,974,975,976,977,
985,986,987,988,989,
1081,1082,1083,1084,1085,
1093,1094,1095,1096,1097,
1105,1106,1107,1108,1109,
1117,1118,1119,1120,1121,
1129,1130,1131,1132,1133,
1225,1226,1227,1228,1229,
1237,1238,1239,1240,1241,
1249,1250,1251,1252,1253,
1261,1262,1263,1264,1265,
1273,1274,1275,1276,1277
306,
650,651,652,653,654,
662,663,664,665,666,
674,675,676,677,678,
686,687,688,689,690,
698,699,700,701,702,
794,795,796,797,798,
806,807,808,809,810,
818,819,820,821,822,
830,831,832,833,834,
842,843,844,845,846,
938,939,940,941,942,
950,951,952,953,954,
962,963,964,965,966,
974,975,976,977,978,
986,987,988,989,990,
1082,1083,1084,1085,1086,
1094,1095,1096,1097,1098,
1106,1107,1108,1109,1110,
1118,1119,1120,1121,1122,
1130,1131,1132,1133,1134,
1226,1227,1228,1229,1230,
1238,1239,1240,1241,1242,
1250,1251,1252,1253,1254,
1262,1263,1264,1265,1266,
1274,1275,1276,1277,1278
307,
651,652,653,654,655,
663,664,665,666,667,
675,676,677,678,679,
687,688,689,690,691,
699,700,701,702,703,
795,796,797,798,799,
807,808,809,810,811,
819,820,821,822,823,
831,832,833,834,835,
843,844,845,846,847,
939,940,941,942,943,
951,952,953,954,955,
963,964,965,966,967,
975,976,977,978,979,
987,988,989,990,991,
1083,1084,1085,1086,1087,
1095,1096,1097,1098,1099,
1107,1108,1109,1110,1111,
1119,1120,1121,1122,1123,
1131,1132,1133,1134,1135,
1227,1228,1229,1230,1231,
1239,1240,1241,1242,1243,
1251,1252,1253,1254,1255,
1263,1264,1265,1266,1267,
1275,1276,1277,1278,1279
308,
652,653,654,655,656,
664,665,666,667,668,
676,677,678,679,680,
688,689,690,691,692,
700,701,702,703,704,
796,797,798,799,800,
808,809,810,811,812,
820,821,822,823,824,
832,833,834,835,836,
844,845,846,847,848,
940,941,942,943,944,
952,953,954,955,956,
964,965,966,967,968,
976,977,978,979,980,
988,989,990,991,992,
1084,1085,1086,1087,1088,
1096,1097,1098,1099,1100,
1108,1109,1110,1111,1112,
1120,1121,1122,1123,1124,
1132,1133,1134,1135,1136,
1228,1229,1230,1231,1232,
1240,1241,1242,1243,1244,
1252,1253,1254,1255,1256,
1264,1265,1266,1267,1268,
1276,1277,1278,1279,1280
309,
653,654,655,656,657,
665,666,667,668,669,
677,678,679,680,681,
689,690,691,692,693,
701,702,703,704,705,
797,798,799,800,801,
809,810,811,812,813,
821,822,823,824,825,
833,834,835,836,837,
845,846,847,848,849,
941,942,943,944,945,
953,954,955,956,957,
965,966,967,968,969,
977,978,979,980,981,
989,990,991,992,993,
1085,1086,1087,1088,1089,
1097,1098,1099,1100,1101,
1109,1110,1111,1112,1113,
1121,1122,1123,1124,1125,
1133,1134,1135,1136,1137,
1229,1230,1231,1232,1233,
1241,1242,1243,1244,1245,
1253,1254,1255,1256,1257,
1265,1266,1267,1268,1269,
1277,1278,1279,1280,1281
310,
654,655,656,657,658,
666,667,668,669,670,
678,679,680,681,682,
690,691,692,693,694,
702,703,704,705,706,
798,799,800,801,802,
810,811,812,813,814,
822,823,824,825,826,
834,835,836,837,838,
846,847,848,849,850,
942,943,944,945,946,
954,955,956,957,958,
966,967,968,969,970,
978,979,980,981,982,
990,991,992,993,994,
1086,1087,1088,1089,1090,
1098,1099,1100,1101,1102,
1110,1111,1112,1113,1114,
1122,1123,1124,1125,1126,
1134,1135,1136,1137,1138,
1230,1231,1232,1233,1234,
1242,1243,1244,1245,1246,
1254,1255,1256,1257,1258,
1266,1267,1268,1269,1270,
1278,1279,1280,1281,1282
311,
655,656,657,658,659,
667,668,669,670,671,
679,680,681,682,683,
691,692,693,694,695,
703,704,705,706,707,
799,800,801,802,803,
811,812,813,814,815,
823,824,825,826,827,
835,836,837,838,839,
847,848,849,850,851,
943,944,945,946,947,
955,956,957,958,959,
967,968,969,970,971,
979,980,981,982,983,
991,992,993,994,995,
1087,1088,1089,1090,1091,
1099,1100,1101,1102,1103,
1111,1112,1113,1114,1115,
1123,1124,1125,1126,1127,
1135,1136,1137,1138,1139,
1231,1232,1233,1234,1235,
1243,1244,1245,1246,1247,
1255,1256,1257,1258,1259,
1267,1268,1269,1270,1271,
1279,1280,1281,1282,1283
312,
656,657,658,659,660,
668,669,670,671,672,
680,681,682,683,684,
692,693,694,695,696,
704,705,706,707,708,
800,801,802,803,804,
812,813,814,815,816,
824,825,826,827,828,
836,837,838,839,840,
848,849,850,851,852,
944,945,946,947,948,
956,957,958,959,960,
968,969,970,971,972,
980,981,982,983,984,
992,993,994,995,996,
1088,1089,1090,1091,1092,
1100,1101,1102,1103,1104,
1112,1113,1114,1115,1116,
1124,1125,1126,1127,1128,
1136,1137,1138,1139,1140,
1232,1233,1234,1235,1236,
1244,1245,1246,1247,1248,
1256,1257,1258,1259,1260,
1268,1269,1270,1271,1272,
1280,1281,1282,1283,1284
313,
661,662,663,664,665,
673,674,675,676,677,
685,686,687,688,689,
697,698,699,700,701,
709,710,711,712,713,
805,806,807,808,809,
817,818,819,820,821,
829,830,831,832,833,
841,842,843,844,845,
853,854,855,856,857,
949,950,951,952,953,
961,962,963,964,965,
973,974,975,976,977,
985,986,987,988,989,
997,998,999,1000,1001,
1093,1094,1095,1096,1097,
1105,1106,1107,1108,1109,
1117,1118,1119,1120,1121,
1129,1130,1131,1132,1133,
1141,1142,1143,1144,1145,
1237,1238,1239,1240,1241,
1249,1250,1251,1252,1253,
1261,1262,1263,1264,1265,
1273,1274,1275,1276,1277,
1285,1286,1287,1288,1289
314,
662,663,664,665,666,
674,675,676,677,678,
686,687,688,689,690,
698,699,700,701,702,
710,711,712,713,714,
806,807,808,809,810,
818,819,820,821,822,
830,831,832,833,834,
842,843,844,845,846,
854,855,856,857,858,
950,951,952,953,954,
962,963,964,965,966,
974,975,976,977,978,
986,987,988,989,990,
998,999,1000,1001,1002,
1094,1095,1096,1097,1098,
1106,1107,1108,1109,1110,
1118,1119,1120,1121,1122,
1130,1131,1132,1133,1134,
1142,1143,1144,1145,1146,
1238,1239,1240,1241,1242,
1250,1251,1252,1253,1254,
1262,1263,1264,1265,1266,
1274,1275,1276,1277,1278,
1286,1287,1288,1289,1290
315,
663,664,665,666,667,
675,676,677,678,679,
687,688,689,690,691,
699,700,701,702,703,
711,712,713,714,715,
807,808,809,810,811,
819,820,821,822,823,
831,832,833,834,835,
843,844,845,846,847,
855,856,857,858,859,
951,952,953,954,955,
963,964,965,966,967,
975,976,977,978,979,
987,988,989,990,991,
999,1000,1001,1002,1003,
1095,1096,1097,1098,1099,
1107,1108,1109,1110,1111,
1119,1120,1121,1122,1123,
1131,1132,1133,1134,1135,
1143,1144,1145,1146,1147,
1239,1240,1241,1242,1243,
1251,1252,1253,1254,1255,
1263,1264,1265,1266,1267,
1275,1276,1277,1278,1279,
1287,1288,1289,1290,1291
316,
664,665,666,667,668,
676,677,678,679,680,
688,689,690,691,692,
700,701,702,703,704,
712,713,714,715,716,
808,809,810,811,812,
820,821,822,823,824,
832,833,834,835,836,
844,845,846,847,848,
856,857,858,859,860,
952,953,954,955,956,
964,965,966,967,968,
976,977,978,979,980,
988,989,990,991,992,
1000,1001,1002,1003,1004,
1096,1097,1098,1099,1100,
1108,1109,1110,1111,1112,
1120,1121,1122,1123,1124,
1132,1133,1134,1135,1136,
1144,1145,1146,1147,1148,
1240,1241,1242,1243,1244,
1252,1253,1254,1255,1256,
1264,1265,1266,1267,1268,
1276,1277,1278,1279,1280,
1288,1289,1290,1291,1292
317,
665,666,667,668,669,
677,678,679,680,681,
689,690,691,692,693,
701,702,703,704,705,
713,714,715,716,717,
809,810,811,812,813,
821,822,823,824,825,
833,834,835,836,837,
845,846,847,848,849,
857,858,859,860,861,
953,954,955,956,957,
965,966,967,968,969,
977,978,979,980,981,
989,990,991,992,993,
1001,1002,1003,1004,1005,
1097,1098,1099,1100,1101,
1109,1110,1111,1112,1113,
1121,1122,1123,1124,1125,
1133,1134,1135,1136,1137,
1145,1146,1147,1148,1149,
1241,1242,1243,1244,1245,
1253,1254,1255,1256,1257,
1265,1266,1267,1268,1269,
1277,1278,1279,1280,1281,
1289,1290,1291,1292,1293
318,
666,667,668,669,670,
678,679,680,681,682,
690,691,692,693,694,
702,703,704,705,706,
714,715,716,717,718,
810,811,812,813,814,
822,823,824,825,826,
834,835,836,837,838,
846,847,848,849,850,
858,859,860,861,862,
954,955,956,957,958,
966,967,968,969,970,
978,979,980,981,982,
990,991,992,993,994,
1002,1003,1004,1005,1006,
1098,1099,1100,1101,1102,
1110,1111,1112,1113,1114,
1122,1123,1124,1125,1126,
1134,1135,1136,1137,1138,
1146,1147,1148,1149,1150,
1242,1243,1244,1245,1246,
1254,1255,1256,1257,1258,
1266,1267,1268,1269,1270,
1278,1279,1280,1281,1282,
1290,1291,1292,1293,1294
319,
667,668,669,670,671,
679,680,681,682,683,
691,692,693,694,695,
703,704,705,706,707,
715,716,717,718,719,
811,812,813,814,815,
823,824,825,826,827,
835,836,837,838,839,
847,848,849,850,851,
859,860,861,862,863,
955,956,957,958,959,
967,968,969,970,971,
979,980,981,982,983,
991,992,993,994,995,
1003,1004,1005,1006,1007,
1099,1100,1101,1102,1103,
1111,1112,1113,1114,1115,
1123,1124,1125,1126,1127,
1135,1136,1137,1138,1139,
1147,1148,1149,1150,1151,
1243,1244,1245,1246,1247,
1255,1256,1257,1258,1259,
1267,1268,1269,1270,1271,
1279,1280,1281,1282,1283,
1291,1292,1293,1294,1295
320,
668,669,670,671,672,
680,681,682,683,684,
692,693,694,695,696,
704,705,706,707,708,
716,717,718,719,720,
812,813,814,815,816,
824,825,826,827,828,
836,837,838,839,840,
848,849,850,851,852,
860,861,862,863,864,
956,957,958,959,960,
968,969,970,971,972,
980,981,982,983,984,
992,993,994,995,996,
1004,1005,1006,1007,1008,
1100,1101,1102,1103,1104,
1112,1113,1114,1115,1116,
1124,1125,1126,1127,1128,
1136,1137,1138,1139,1140,
1148,1149,1150,1151,1152,
1244,1245,1246,1247,1248,
1256,1257,1258,1259,1260,
1268,1269,1270,1271,1272,
1280,1281,1282,1283,1284,
1292,1293,1294,1295,1296
321,
721,722,723,724,725,
733,734,735,736,737,
745,746,747,748,749,
757,758,759,760,761,
769,770,771,772,773,
865,866,867,868,869,
877,878,879,880,881,
889,890,891,892,893,
901,902,903,904,905,
913,914,915,916,917,
1009,1010,1011,1012,1013,
1021,1022,1023,1024,1025,
1033,1034,1035,1036,1037,
1045,1046,1047,1048,1049,
1057,1058,1059,1060,1061,
1153,1154,1155,1156,1157,
1165,1166,1167,1168,1169,
1177,1178,1179,1180,1181,
1189,1190,1191,1192,1193,
1201,1202,1203,1204,1205,
1297,1298,1299,1300,1301,
1309,1310,1311,1312,1313,
1321,1322,1323,1324,1325,
1333,1334,1335,1336,1337,
1345,1346,1347,1348,1349
322,
722,723,724,725,726,
734,735,736,737,738,
746,747,748,749,750,
758,759,760,761,762,
770,771,772,773,774,
866,867,868,869,870,
878,879,880,881,882,
890,891,892,893,894,
902,903,904,905,906,
914,915,916,917,918,
1010,1011,1012,1013,1014,
1022,1023,1024,1025,1026,
1034,1035,1036,1037,1038,
1046,1047,1048,1049,1050,
1058,1059,1060,1061,1062,
1154,1155,1156,1157,1158,
1166,1167,1168,1169,1170,
1178,1179,1180,1181,1182,
1190,1191,1192,1193,1194,
1202,1203,1204,1205,1206,
1298,1299,1300,1301,1302,
1310,1311,1312,1313,1314,
1322,1323,1324,1325,1326,
1334,1335,1336,1337,1338,
1346,1347,1348,1349,1350
323,
723,724,725,726,727,
735,736,737,738,739,
747,748,749,750,751,
759,760,761,762,763,
771,772,773,774,775,
867,868,869,870,871,
879,880,881,882,883,
891,892,893,894,895,
903,904,905,906,907,
915,916,917,918,919,
1011,1012,1013,1014,1015,
1023,1024,1025,1026,1027,
1035,1036,1037,1038,1039,
1047,1048,1049,1050,1051,
1059,1060,1061,1062,1063,
1155,1156,1157,1158,1159,
1167,1168,1169,1170,1171,
1179,1180,1181,1182,1183,
1191,1192,1193,1194,1195,
1203,1204,1205,1206,1207,
1299,1300,1301,1302,1303,
1311,1312,1313,1314,1315,
1323,1324,1325,1326,1327,
1335,1336,1337,1338,1339,
1347,1348,1349,1350,1351
324,
724,725,726,727,728,
736,737,738,739,740,
748,749,750,751,752,
760,761,762,763,764,
772,773,774,775,776,
868,869,870,871,872,
880,881,882,883,884,
892,893,894,895,896,
904,905,906,907,908,
916,917,918,919,920,
1012,1013,1014,1015,1016,
1024,1025,1026,1027,1028,
1036,1037,1038,1039,1040,
1048,1049,1050,1051,1052,
1060,1061,1062,1063,1064,
1156,1157,1158,1159,1160,
1168,1169,1170,1171,1172,
1180,1181,1182,1183,1184,
1192,1193,1194,1195,1196,
1204,1205,1206,1207,1208,
1300,1301,1302,1303,1304,
1312,1313,1314,1315,1316,
1324,1325,1326,1327,1328,
1336,1337,1338,1339,1340,
1348,1349,1350,1351,1352
325,
725,726,727,728,729,
737,738,739,740,741,
749,750,751,752,753,
761,762,763,764,765,
773,774,775,776,777,
869,870,871,872,873,
881,882,883,884,885,
893,894,895,896,897,
905,906,907,908,909,
917,918,919,920,921,
1013,1014,1015,1016,1017,
1025,1026,1027,1028,1029,
1037,1038,1039,1040,1041,
1049,1050,1051,1052,1053,
1061,1062,1063,1064,1065,
1157,1158,1159,1160,1161,
1169,1170,1171,1172,1173,
1181,1182,1183,1184,1185,
1193,1194,1195,1196,1197,
1205,1206,1207,1208,1209,
1301,1302,1303,1304,1305,
1313,1314,1315,1316,1317,
1325,1326,1327,1328,1329,
1337,1338,1339,1340,1341,
1349,1350,1351,1352,1353
326,
726,727,728,729,730,
738,739,740,741,742,
750,751,752,753,754,
762,763,764,765,766,
774,775,776,777,778,
870,871,872,873,874,
882,883,884,885,886,
894,895,896,897,898,
906,907,908,909,910,
918,919,920,921,922,
1014,1015,1016,1017,1018,
1026,1027,1028,1029,1030,
1038,1039,1040,1041,1042,
1050,1051,1052,1053,1054,
1062,1063,1064,1065,1066,
1158,1159,1160,1161,1162,
1170,1171,1172,1173,1174,
1182,1183,1184,1185,1186,
1194,1195,1196,1197,1198,
1206,1207,1208,1209,1210,
1302,1303,1304,1305,1306,
1314,1315,1316,1317,1318,
1326,1327,1328,1329,1330,
1338,1339,1340,1341,1342,
1350,1351,1352,1353,1354
327,
727,728,729,730,731,
739,740,741,742,743,
751,752,753,754,755,
763,764,765,766,767,
775,776,777,778,779,
871,872,873,874,875,
883,884,885,886,887,
895,896,897,898,899,
907,908,909,910,911,
919,920,921,922,923,
1015,1016,1017,1018,1019,
1027,1028,1029,1030,1031,
1039,1040,1041,1042,1043,
1051,1052,1053,1054,1055,
1063,1064,1065,1066,1067,
1159,1160,1161,1162,1163,
1171,1172,1173,1174,1175,
1183,1184,1185,1186,1187,
1195,1196,1197,1198,1199,
1207,1208,1209,1210,1211,
1303,1304,1305,1306,1307,
1315,1316,1317,1318,1319,
1327,1328,1329,1330,1331,
1339,1340,1341,1342,1343,
1351,1352,1353,1354,1355
328,
728,729,730,731,732,
740,741,742,743,744,
752,753,754,755,756,
764,765,766,767,768,
776,777,778,779,780,
872,873,874,875,876,
884,885,886,887,888,
896,897,898,899,900,
908,909,910,911,912,
920,921,922,923,924,
1016,1017,1018,1019,1020,
1028,1029,1030,1031,1032,
1040,1041,1042,1043,1044,
1052,1053,1054,1055,1056,
1064,1065,1066,1067,1068,
1160,1161,1162,1163,1164,
1172,1173,1174,1175,1176,
1184,1185,1186,1187,1188,
1196,1197,1198,1199,1200,
1208,1209,1210,1211,1212,
1304,1305,1306,1307,1308,
1316,1317,1318,1319,1320,
1328,1329,1330,1331,1332,
1340,1341,1342,1343,1344,
1352,1353,1354,1355,1356
329,
733,734,735,736,737,
745,746,747,748,749,
757,758,759,760,761,
769,770,771,772,773,
781,782,783,784,785,
877,878,879,880,881,
889,890,891,892,893,
901,902,903,904,905,
913,914,915,916,917,
925,926,927,928,929,
1021,1022,1023,1024,1025,
1033,1034,1035,1036,1037,
1045,1046,1047,1048,1049,
1057,1058,1059,1060,1061,
1069,1070,1071,1072,1073,
1165,1166,1167,1168,1169,
1177,1178,1179,1180,1181,
1189,1190,1191,1192,1193,
1201,1202,1203,1204,1205,
1213,1214,1215,1216,1217,
1309,1310,1311,1312,1313,
1321,1322,1323,1324,1325,
1333,1334,1335,1336,1337,
1345,1346,1347,1348,1349,
1357,1358,1359,1360,1361
330,
734,735,736,737,738,
746,747,748,749,750,
758,759,760,761,762,
770,771,772,773,774,
782,783,784,785,786,
878,879,880,881,882,
890,891,892,893,894,
902,903,904,905,906,
914,915,916,917,918,
926,927,928,929,930,
1022,1023,1024,1025,1026,
1034,1035,1036,1037,1038,
1046,1047,1048,1049,1050,
1058,1059,1060,1061,1062,
1070,1071,1072,1073,1074,
1166,1167,1168,1169,1170,
1178,1179,1180,1181,1182,
1190,1191,1192,1193,1194,
1202,1203,1204,1205,1206,
1214,1215,1216,1217,1218,
1310,1311,1312,1313,1314,
1322,1323,1324,1325,1326,
1334,1335,1336,1337,1338,
1346,1347,1348,1349,1350,
1358,1359,1360,1361,1362
331,
735,736,737,738,739,
747,748,749,750,751,
759,760,761,762,763,
771,772,773,774,775,
783,784,785,786,787,
879,880,881,882,883,
891,892,893,894,895,
903,904,905,906,907,
915,916,917,918,919,
927,928,929,930,931,
1023,1024,1025,1026,1027,
1035,1036,1037,1038,1039,
1047,1048,1049,1050,1051,
1059,1060,1061,1062,1063,
1071,1072,1073,1074,1075,
1167,1168,1169,1170,1171,
1179,1180,1181,1182,1183,
1191,1192,1193,1194,1195,
1203,1204,1205,1206,1207,
1215,1216,1217,1218,1219,
1311,1312,1313,1314,1315,
1323,1324,1325,1326,1327,
1335,1336,1337,1338,1339,
1347,1348,1349,1350,1351,
1359,1360,1361,1362,1363
332,
736,737,738,739,740,
748,749,750,751,752,
760,761,762,763,764,
772,773,774,775,776,
784,785,786,787,788,
880,881,882,883,884,
892,893,894,895,896,
904,905,906,907,908,
916,917,918,919,920,
928,929,930,931,932,
1024,1025,1026,1027,1028,
1036,1037,1038,1039,1040,
1048,1049,1050,1051,1052,
1060,1061,1062,1063,1064,
1072,1073,1074,1075,1076,
1168,1169,1170,1171,1172,
1180,1181,1182,1183,1184,
1192,1193,1194,1195,1196,
1204,1205,1206,1207,1208,
1216,1217,1218,1219,1220,
1312,1313,1314,1315,1316,
1324,1325,1326,1327,1328,
1336,1337,1338,1339,1340,
1348,1349,1350,1351,1352,
1360,1361,1362,1363,1364
333,
737,738,739,740,741,
749,750,751,752,753,
761,762,763,764,765,
773,774,775,776,777,
785,786,787,788,789,
881,882,883,884,885,
893,894,895,896,897,
905,906,907,908,909,
917,918,919,920,921,
929,930,931,932,933,
1025,1026,1027,1028,1029,
1037,1038,1039,1040,1041,
1049,1050,1051,1052,1053,
1061,1062,1063,1064,1065,
1073,1074,1075,1076,1077,
1169,1170,1171,1172,1173,
1181,1182,1183,1184,1185,
1193,1194,1195,1196,1197,
1205,1206,1207,1208,1209,
1217,1218,1219,1220,1221,
1313,1314,1315,1316,1317,
1325,1326,1327,1328,1329,
1337,1338,1339,1340,1341,
1349,1350,1351,1352,1353,
1361,1362,1363,1364,1365
334,
738,739,740,741,742,
750,751,752,753,754,
762,763,764,765,766,
774,775,776,777,778,
786,787,788,789,790,
882,883,884,885,886,
894,895,896,897,898,
906,907,908,909,910,
918,919,920,921,922,
930,931,932,933,934,
1026,1027,1028,1029,1030,
1038,1039,1040,1041,1042,
1050,1051,1052,1053,1054,
1062,1063,1064,1065,1066,
1074,1075,1076,1077,1078,
1170,1171,1172,1173,1174,
1182,1183,1184,1185,1186,
1194,1195,1196,1197,1198,
1206,1207,1208,1209,1210,
1218,1219,1220,1221,1222,
1314,1315,1316,1317,1318,
1326,1327,1328,1329,1330,
1338,1339,1340,1341,1342,
1350,1351,1352,1353,1354,
1362,1363,1364,1365,1366
335,
739,740,741,742,743,
751,752,753,754,755,
763,764,765,766,767,
775,776,777,778,779,
787,788,789,790,791,
883,884,885,886,887,
895,896,897,898,899,
907,908,909,910,911,
919,920,921,922,923,
931,932,933,934,935,
1027,1028,1029,1030,1031,
1039,1040,1041,1042,1043,
1051,1052,1053,1054,1055,
1063,1064,1065,1066,1067,
1075,1076,1077,1078,1079,
1171,1172,1173,1174,1175,
1183,1184,1185,1186,1187,
1195,1196,1197,1198,1199,
1207,1208,1209,1210,1211,
1219,1220,1221,1222,1223,
1315,1316,1317,1318,1319,
1327,1328,1329,1330,1331,
1339,1340,1341,1342,1343,
1351,1352,1353,1354,1355,
1363,1364,1365,1366,1367
336,
740,741,742,743,744,
752,753,754,755,756,
764,765,766,767,768,
776,777,778,779,780,
788,789,790,791,792,
884,885,886,887,888,
896,897,898,899,900,
908,909,910,911,912,
920,921,922,923,924,
932,933,934,935,936,
1028,1029,1030,1031,1032,
1040,1041,1042,1043,1044,
1052,1053,1054,1055,1056,
1064,1065,1066,1067,1068,
1076,1077,1078,1079,1080,
1172,1173,1174,1175,1176,
1184,1185,1186,1187,1188,
1196,1197,1198,1199,1200,
1208,1209,1210,1211,1212,
1220,1221,1222,1223,1224,
1316,1317,1318,1319,1320,
1328,1329,1330,1331,1332,
1340,1341,1342,1343,1344,
1352,1353,1354,1355,1356,
1364,1365,1366,1367,1368
337,
745,746,747,748,749,
757,758,759,760,761,
769,770,771,772,773,
781,782,783,784,785,
793,794,795,796,797,
889,890,891,892,893,
901,902,903,904,905,
913,914,915,916,917,
925,926,927,928,929,
937,938,939,940,941,
1033,1034,1035,1036,1037,
1045,1046,1047,1048,1049,
1057,1058,1059,1060,1061,
1069,1070,1071,1072,1073,
1081,1082,1083,1084,1085,
1177,1178,1179,1180,1181,
1189,1190,1191,1192,1193,
1201,1202,1203,1204,1205,
1213,1214,1215,1216,1217,
1225,1226,1227,1228,1229,
1321,1322,1323,1324,1325,
1333,1334,1335,1336,1337,
1345,1346,1347,1348,1349,
1357,1358,1359,1360,1361,
1369,1370,1371,1372,1373
338,
746,747,748,749,750,
758,759,760,761,762,
770,771,772,773,774,
782,783,784,785,786,
794,795,796,797,798,
890,891,892,893,894,
902,903,904,905,906,
914,915,916,917,918,
926,927,928,929,930,
938,939,940,941,942,
1034,1035,1036,1037,1038,
1046,1047,1048,1049,1050,
1058,1059,1060,1061,1062,
1070,1071,1072,1073,1074,
1082,1083,1084,1085,1086,
1178,1179,1180,1181,1182,
1190,1191,1192,1193,1194,
1202,1203,1204,1205,1206,
1214,1215,1216,1217,1218,
1226,1227,1228,1229,1230,
1322,1323,1324,1325,1326,
1334,1335,1336,1337,1338,
1346,1347,1348,1349,1350,
1358,1359,1360,1361,1362,
1370,1371,1372,1373,1374
339,
747,748,749,750,751,
759,760,761,762,763,
771,772,773,774,775,
783,784,785,786,787,
795,796,797,798,799,
891,892,893,894,895,
903,904,905,906,907,
915,916,917,918,919,
927,928,929,930,931,
939,940,941,942,943,
1035,1036,1037,1038,1039,
1047,1048,1049,1050,1051,
1059,1060,1061,1062,1063,
1071,1072,1073,1074,1075,
1083,1084,1085,1086,1087,
1179,1180,1181,1182,1183,
1191,1192,1193,1194,1195,
1203,1204,1205,1206,1207,
1215,1216,1217,1218,1219,
1227,1228,1229,1230,1231,
1323,1324,1325,1326,1327,
1335,1336,1337,1338,1339,
1347,1348,1349,1350,1351,
1359,1360,1361,1362,1363,
1371,1372,1373,1374,1375
340,
748,749,750,751,752,
760,761,762,763,764,
772,773,774,775,776,
784,785,786,787,788,
796,797,798,799,800,
892,893,894,895,896,
904,905,906,907,908,
916,917,918,919,920,
928,929,930,931,932,
940,941,942,943,944,
1036,1037,1038,1039,1040,
1048,1049,1050,1051,1052,
1060,1061,1062,1063,1064,
1072,1073,1074,1075,1076,
1084,1085,1086,1087,1088,
1180,1181,1182,1183,1184,
1192,1193,1194,1195,1196,
1204,1205,1206,1207,1208,
1216,1217,1218,1219,1220,
1228,1229,1230,1231,1232,
1324,1325,1326,1327,1328,
1336,1337,1338,1339,1340,
1348,1349,1350,1351,1352,
1360,1361,1362,1363,1364,
1372,1373,1374,1375,1376
341,
749,750,751,752,753,
761,762,763,764,765,
773,774,775,776,777,
785,786,787,788,789,
797,798,799,800,801,
893,894,895,896,897,
905,906,907,908,909,
917,918,919,920,921,
929,930,931,932,933,
941,942,943,944,945,
1037,1038,1039,1040,1041,
1049,1050,1051,1052,1053,
1061,1062,1063,1064,1065,
1073,1074,1075,1076,1077,
1085,1086,1087,1088,1089,
1181,1182,1183,1184,1185,
1193,1194,1195,1196,1197,
1205,1206,1207,1208,1209,
1217,1218,1219,1220,1221,
1229,1230,1231,1232,1233,
1325,1326,1327,1328,1329,
1337,1338,1339,1340,1341,
1349,1350,1351,1352,1353,
1361,1362,1363,1364,1365,
1373,1374,1375,1376,1377
342,
750,751,752,753,754,
762,763,764,765,766,
774,775,776,777,778,
786,787,788,789,790,
798,799,800,801,802,
894,895,896,897,898,
906,907,908,909,910,
918,919,920,921,922,
930,931,932,933,934,
942,943,944,945,946,
1038,1039,1040,1041,1042,
1050,1051,1052,1053,1054,
1062,1063,1064,1065,1066,
1074,1075,1076,1077,1078,
1086,1087,1088,1089,1090,
1182,1183,1184,1185,1186,
1194,1195,1196,1197,1198,
1206,1207,1208,1209,1210,
1218,1219,1220,1221,1222,
1230,1231,1232,1233,1234,
1326,1327,1328,1329,1330,
1338,1339,1340,1341,1342,
1350,1351,1352,1353,1354,
1362,1363,1364,1365,1366,
1374,1375,1376,1377,1378
343,
751,752,753,754,755,
763,764,765,766,767,
775,776,777,778,779,
787,788,789,790,791,
799,800,801,802,803,
895,896,897,898,899,
907,908,909,910,911,
919,920,921,922,923,
931,932,933,934,935,
943,944,945,946,947,
1039,1040,1041,1042,1043,
1051,1052,1053,1054,1055,
1063,1064,1065,1066,1067,
1075,1076,1077,1078,1079,
1087,1088,1089,1090,1091,
1183,1184,1185,1186,1187,
1195,1196,1197,1198,1199,
1207,1208,1209,1210,1211,
1219,1220,1221,1222,1223,
1231,1232,1233,1234,1235,
1327,1328,1329,1330,1331,
1339,1340,1341,1342,1343,
1351,1352,1353,1354,1355,
1363,1364,1365,1366,1367,
1375,1376,1377,1378,1379
344,
752,753,754,755,756,
764,765,766,767,768,
776,777,778,779,780,
788,789,790,791,792,
800,801,802,803,804,
896,897,898,899,900,
908,909,910,911,912,
920,921,922,923,924,
932,933,934,935,936,
944,945,946,947,948,
1040,1041,1042,1043,1044,
1052,1053,1054,1055,1056,
1064,1065,1066,1067,1068,
1076,1077,1078,1079,1080,
1088,1089,1090,1091,1092,
1184,1185,1186,1187,1188,
1196,1197,1198,1199,1200,
1208,1209,1210,1211,1212,
1220,1221,1222,1223,1224,
1232,1233,1234,1235,1236,
1328,1329,1330,1331,1332,
1340,1341,1342,1343,1344,
1352,1353,1354,1355,1356,
1364,1365,1366,1367,1368,
1376,1377,1378,1379,1380
345,
757,758,759,760,761,
769,770,771,772,773,
781,782,783,784,785,
793,794,795,796,797,
805,806,807,808,809,
901,902,903,904,905,
913,914,915,916,917,
925,926,927,928,929,
937,938,939,940,941,
949,950,951,952,953,
1045,1046,1047,1048,1049,
1057,1058,1059,1060,1061,
1069,1070,1071,1072,1073,
1081,1082,1083,1084,1085,
1093,1094,1095,1096,1097,
1189,1190,1191,1192,1193,
1201,1202,1203,1204,1205,
1213,1214,1215,1216,1217,
1225,1226,1227,1228,1229,
1237,1238,1239,1240,1241,
1333,1334,1335,1336,1337,
1345,1346,1347,1348,1349,
1357,1358,1359,1360,1361,
1369,1370,1371,1372,1373,
1381,1382,1383,1384,1385
346,
758,759,760,761,762,
770,771,772,773,774,
782,783,784,785,786,
794,795,796,797,798,
806,807,808,809,810,
902,903,904,905,906,
914,915,916,917,918,
926,927,928,929,930,
938,939,940,941,942,
950,951,952,953,954,
1046,1047,1048,1049,1050,
1058,1059,1060,1061,1062,
1070,1071,1072,1073,1074,
1082,1083,1084,1085,1086,
1094,1095,1096,1097,1098,
1190,1191,1192,1193,1194,
1202,1203,1204,1205,1206,
1214,1215,1216,1217,1218,
1226,1227,1228,1229,1230,
1238,1239,1240,1241,1242,
1334,1335,1336,1337,1338,
1346,1347,1348,1349,1350,
1358,1359,1360,1361,1362,
1370,1371,1372,1373,1374,
1382,1383,1384,1385,1386
347,
759,760,761,762,763,
771,772,773,774,775,
783,784,785,786,787,
795,796,797,798,799,
807,808,809,810,811,
903,904,905,906,907,
915,916,917,918,919,
927,928,929,930,931,
939,940,941,942,943,
951,952,953,954,955,
1047,1048,1049,1050,1051,
1059,1060,1061,1062,1063,
1071,1072,1073,1074,1075,
1083,1084,1085,1086,1087,
1095,1096,1097,1098,1099,
1191,1192,1193,1194,1195,
1203,1204,1205,1206,1207,
1215,1216,1217,1218,1219,
1227,1228,1229,1230,1231,
1239,1240,1241,1242,1243,
1335,1336,1337,1338,1339,
1347,1348,1349,1350,1351,
1359,1360,1361,1362,1363,
1371,1372,1373,1374,1375,
1383,1384,1385,1386,1387
348,
760,761,762,763,764,
772,773,774,775,776,
784,785,786,787,788,
796,797,798,799,800,
808,809,810,811,812,
904,905,906,907,908,
916,917,918,919,920,
928,929,930,931,932,
940,941,942,943,944,
952,953,954,955,956,
1048,1049,1050,1051,1052,
1060,1061,1062,1063,1064,
1072,1073,1074,1075,1076,
1084,1085,1086,1087,1088,
1096,1097,1098,1099,1100,
1192,1193,1194,1195,1196,
1204,1205,1206,1207,1208,
1216,1217,1218,1219,1220,
1228,1229,1230,1231,1232,
1240,1241,1242,1243,1244,
1336,1337,1338,1339,1340,
1348,1349,1350,1351,1352,
1360,1361,1362,1363,1364,
1372,1373,1374,1375,1376,
1384,1385,1386,1387,1388
349,
761,762,763,764,765,
773,774,775,776,777,
785,786,787,788,789,
797,798,799,800,801,
809,810,811,812,813,
905,906,907,908,909,
917,918,919,920,921,
929,930,931,932,933,
941,942,943,944,945,
953,954,955,956,957,
1049,1050,1051,1052,1053,
1061,1062,1063,1064,1065,
1073,1074,1075,1076,1077,
1085,1086,1087,1088,1089,
1097,1098,1099,1100,1101,
1193,1194,1195,1196,1197,
1205,1206,1207,1208,1209,
1217,1218,1219,1220,1221,
1229,1230,1231,1232,1233,
1241,1242,1243,1244,1245,
1337,1338,1339,1340,1341,
1349,1350,1351,1352,1353,
1361,1362,1363,1364,1365,
1373,1374,1375,1376,1377,
1385,1386,1387,1388,1389
350,
762,763,764,765,766,
774,775,776,777,778,
786,787,788,789,790,
798,799,800,801,802,
810,811,812,813,814,
906,907,908,909,910,
918,919,920,921,922,
930,931,932,933,934,
942,943,944,945,946,
954,955,956,957,958,
1050,1051,1052,1053,1054,
1062,1063,1064,1065,1066,
1074,1075,1076,1077,1078,
1086,1087,1088,1089,1090,
1098,1099,1100,1101,1102,
1194,1195,1196,1197,1198,
1206,1207,1208,1209,1210,
1218,1219,1220,1221,1222,
1230,1231,1232,1233,1234,
1242,1243,1244,1245,1246,
1338,1339,1340,1341,1342,
1350,1351,1352,1353,1354,
1362,1363,1364,1365,1366,
1374,1375,1376,1377,1378,
1386,1387,1388,1389,1390
351,
763,764,765,766,767,
775,776,777,778,779,
787,788,789,790,791,
799,800,801,802,803,
811,812,813,814,815,
907,908,909,910,911,
919,920,921,922,923,
931,932,933,934,935,
943,944,945,946,947,
955,956,957,958,959,
1051,1052,1053,1054,1055,
1063,1064,1065,1066,1067,
1075,1076,1077,1078,1079,
1087,1088,1089,1090,1091,
1099,1100,1101,1102,1103,
1195,1196,1197,1198,1199,
1207,1208,1209,1210,1211,
1219,1220,1221,1222,1223,
1231,1232,1233,1234,1235,
1243,1244,1245,1246,1247,
1339,1340,1341,1342,1343,
1351,1352,1353,1354,1355,
1363,1364,1365,1366,1367,
1375,1376,1377,1378,1379,
1387,1388,1389,1390,1391
352,
764,765,766,767,768,
776,777,778,779,780,
788,789,790,791,792,
800,801,802,803,804,
812,813,814,815,816,
908,909,910,911,912,
920,921,922,923,924,
932,933,934,935,936,
944,945,946,947,948,
956,957,958,959,960,
1052,1053,1054,1055,1056,
1064,1065,1066,1067,1068,
1076,1077,1078,1079,1080,
1088,1089,1090,1091,1092,
1100,1101,1102,1103,1104,
1196,1197,1198,1199,1200,
1208,1209,1210,1211,1212,
1220,1221,1222,1223,1224,
1232,1233,1234,1235,1236,
1244,1245,1246,1247,1248,
1340,1341,1342,1343,1344,
1352,1353,1354,1355,1356,
1364,1365,1366,1367,1368,
1376,1377,1378,1379,1380,
1388,1389,1390,1391,1392
353,
769,770,771,772,773,
781,782,783,784,785,
793,794,795,796,797,
805,806,807,808,809,
817,818,819,820,821,
913,914,915,916,917,
925,926,927,928,929,
937,938,939,940,941,
949,950,951,952,953,
961,962,963,964,965,
1057,1058,1059,1060,1061,
1069,1070,1071,1072,1073,
1081,1082,1083,1084,1085,
1093,1094,1095,1096,1097,
1105,1106,1107,1108,1109,
1201,1202,1203,1204,1205,
1213,1214,1215,1216,1217,
1225,1226,1227,1228,1229,
1237,1238,1239,1240,1241,
1249,1250,1251,1252,1253,
1345,1346,1347,1348,1349,
1357,1358,1359,1360,1361,
1369,1370,1371,1372,1373,
1381,1382,1383,1384,1385,
1393,1394,1395,1396,1397
354,
770,771,772,773,774,
782,783,784,785,786,
794,795,796,797,798,
806,807,808,809,810,
818,819,820,821,822,
914,915,916,917,918,
926,927,928,929,930,
938,939,940,941,942,
950,951,952,953,954,
962,963,964,965,966,
1058,1059,1060,1061,1062,
1070,1071,1072,1073,1074,
1082,1083,1084,1085,1086,
1094,1095,1096,1097,1098,
1106,1107,1108,1109,1110,
1202,1203,1204,1205,1206,
1214,1215,1216,1217,1218,
1226,1227,1228,1229,1230,
1238,1239,1240,1241,1242,
1250,1251,1252,1253,1254,
1346,1347,1348,1349,1350,
1358,1359,1360,1361,1362,
1370,1371,1372,1373,1374,
1382,1383,1384,1385,1386,
1394,1395,1396,1397,1398
355,
771,772,773,774,775,
783,784,785,786,787,
795,796,797,798,799,
807,808,809,810,811,
819,820,821,822,823,
915,916,917,918,919,
927,928,929,930,931,
939,940,941,942,943,
951,952,953,954,955,
963,964,965,966,967,
1059,1060,1061,1062,1063,
1071,1072,1073,1074,1075,
1083,1084,1085,1086,1087,
1095,1096,1097,1098,1099,
1107,1108,1109,1110,1111,
1203,1204,1205,1206,1207,
1215,1216,1217,1218,1219,
1227,1228,1229,1230,1231,
1239,1240,1241,1242,1243,
1251,1252,1253,1254,1255,
1347,1348,1349,1350,1351,
1359,1360,1361,1362,1363,
1371,1372,1373,1374,1375,
1383,1384,1385,1386,1387,
1395,1396,1397,1398,1399
356,
772,773,774,775,776,
784,785,786,787,788,
796,797,798,799,800,
808,809,810,811,812,
820,821,822,823,824,
916,917,918,919,920,
928,929,930,931,932,
940,941,942,943,944,
952,953,954,955,956,
964,965,966,967,968,
1060,1061,1062,1063,1064,
1072,1073,1074,1075,1076,
1084,1085,1086,1087,1088,
1096,1097,1098,1099,1100,
1108,1109,1110,1111,1112,
1204,1205,1206,1207,1208,
1216,1217,1218,1219,1220,
1228,1229,1230,1231,1232,
1240,1241,1242,1243,1244,
1252,1253,1254,1255,1256,
1348,1349,1350,1351,1352,
1360,1361,1362,1363,1364,
1372,1373,1374,1375,1376,
1384,1385,1386,1387,1388,
1396,1397,1398,1399,1400
357,
773,774,775,776,777,
785,786,787,788,789,
797,798,799,800,801,
809,810,811,812,813,
821,822,823,824,825,
917,918,919,920,921,
929,930,931,932,933,
941,942,943,944,945,
953,954,955,956,957,
965,966,967,968,969,
1061,1062,1063,1064,1065,
1073,1074,1075,1076,1077,
1085,1086,1087,1088,1089,
1097,1098,1099,1100,1101,
1109,1110,1111,1112,1113,
1205,1206,1207,1208,1209,
1217,1218,1219,1220,1221,
1229,1230,1231,1232,1233,
1241,1242,1243,1244,1245,
1253,1254,1255,1256,1257,
1349,1350,1351,1352,1353,
1361,1362,1363,1364,1365,
1373,1374,1375,1376,1377,
1385,1386,1387,1388,1389,
1397,1398,1399,1400,1401
358,
774,775,776,777,778,
786,787,788,789,790,
798,799,800,801,802,
810,811,812,813,814,
822,823,824,825,826,
918,919,920,921,922,
930,931,932,933,934,
942,943,944,945,946,
954,955,956,957,958,
966,967,968,969,970,
1062,1063,1064,1065,1066,
1074,1075,1076,1077,1078,
1086,1087,1088,1089,1090,
1098,1099,1100,1101,1102,
1110,1111,1112,1113,1114,
1206,1207,1208,1209,1210,
1218,1219,1220,1221,1222,
1230,1231,1232,1233,1234,
1242,1243,1244,1245,1246,
1254,1255,1256,1257,1258,
1350,1351,1352,1353,1354,
1362,1363,1364,1365,1366,
1374,1375,1376,1377,1378,
1386,1387,1388,1389,1390,
1398,1399,1400,1401,1402
359,
775,776,777,778,779,
787,788,789,790,791,
799,800,801,802,803,
811,812,813,814,815,
823,824,825,826,827,
919,920,921,922,923,
931,932,933,934,935,
943,944,945,946,947,
955,956,957,958,959,
967,968,969,970,971,
1063,1064,1065,1066,1067,
1075,1076,1077,1078,1079,
1087,1088,1089,1090,1091,
1099,1100,1101,1102,1103,
1111,1112,1113,1114,1115,
1207,1208,1209,1210,1211,
1219,1220,1221,1222,1223,
1231,1232,1233,1234,1235,
1243,1244,1245,1246,1247,
1255,1256,1257,1258,1259,
1351,1352,1353,1354,1355,
1363,1364,1365,1366,1367,
1375,1376,1377,1378,1379,
1387,1388,1389,1390,1391,
1399,1400,1401,1402,1403
360,
776,777,778,779,780,
788,789,790,791,792,
800,801,802,803,804,
812,813,814,815,816,
824,825,826,827,828,
920,921,922,923,924,
932,933,934,935,936,
944,945,946,947,948,
956,957,958,959,960,
968,969,970,971,972,
1064,1065,1066,1067,1068,
1076,1077,1078,1079,1080,
1088,1089,1090,1091,1092,
1100,1101,1102,1103,1104,
1112,1113,1114,1115,1116,
1208,1209,1210,1211,1212,
1220,1221,1222,1223,1224,
1232,1233,1234,1235,1236,
1244,1245,1246,1247,1248,
1256,1257,1258,1259,1260,
1352,1353,1354,1355,1356,
1364,1365,1366,1367,1368,
1376,1377,1378,1379,1380,
1388,1389,1390,1391,1392,
1400,1401,1402,1403,1404
361,
781,782,783,784,785,
793,794,795,796,797,
805,806,807,808,809,
817,818,819,820,821,
829,830,831,832,833,
925,926,927,928,929,
937,938,939,940,941,
949,950,951,952,953,
961,962,963,964,965,
973,974,975,976,977,
1069,1070,1071,1072,1073,
1081,1082,1083,1084,1085,
1093,1094,1095,1096,1097,
1105,1106,1107,1108,1109,
1117,1118,1119,1120,1121,
1213,1214,1215,1216,1217,
1225,1226,1227,1228,1229,
1237,1238,1239,1240,1241,
1249,1250,1251,1252,1253,
1261,1262,1263,1264,1265,
1357,1358,1359,1360,1361,
1369,1370,1371,1372,1373,
1381,1382,1383,1384,1385,
1393,1394,1395,1396,1397,
1405,1406,1407,1408,1409
362,
782,783,784,785,786,
794,795,796,797,798,
806,807,808,809,810,
818,819,820,821,822,
830,831,832,833,834,
926,927,928,929,930,
938,939,940,941,942,
950,951,952,953,954,
962,963,964,965,966,
974,975,976,977,978,
1070,1071,1072,1073,1074,
1082,1083,1084,1085,1086,
1094,1095,1096,1097,1098,
1106,1107,1108,1109,1110,
1118,1119,1120,1121,1122,
1214,1215,1216,1217,1218,
1226,1227,1228,1229,1230,
1238,1239,1240,1241,1242,
1250,1251,1252,1253,1254,
1262,1263,1264,1265,1266,
1358,1359,1360,1361,1362,
1370,1371,1372,1373,1374,
1382,1383,1384,1385,1386,
1394,1395,1396,1397,1398,
1406,1407,1408,1409,1410
363,
783,784,785,786,787,
795,796,797,798,799,
807,808,809,810,811,
819,820,821,822,823,
831,832,833,834,835,
927,928,929,930,931,
939,940,941,942,943,
951,952,953,954,955,
963,964,965,966,967,
975,976,977,978,979,
1071,1072,1073,1074,1075,
1083,1084,1085,1086,1087,
1095,1096,1097,1098,1099,
1107,1108,1109,1110,1111,
1119,1120,1121,1122,1123,
1215,1216,1217,1218,1219,
1227,1228,1229,1230,1231,
1239,1240,1241,1242,1243,
1251,1252,1253,1254,1255,
1263,1264,1265,1266,1267,
1359,1360,1361,1362,1363,
1371,1372,1373,1374,1375,
1383,1384,1385,1386,1387,
1395,1396,1397,1398,1399,
1407,1408,1409,1410,1411
364,
784,785,786,787,788,
796,797,798,799,800,
808,809,810,811,812,
820,821,822,823,824,
832,833,834,835,836,
928,929,930,931,932,
940,941,942,943,944,
952,953,954,955,956,
964,965,966,967,968,
976,977,978,979,980,
1072,1073,1074,1075,1076,
1084,1085,1086,1087,1088,
1096,1097,1098,1099,1100,
1108,1109,1110,1111,1112,
1120,1121,1122,1123,1124,
1216,1217,1218,1219,1220,
1228,1229,1230,1231,1232,
1240,1241,1242,1243,1244,
1252,1253,1254,1255,1256,
1264,1265,1266,1267,1268,
1360,1361,1362,1363,1364,
1372,1373,1374,1375,1376,
1384,1385,1386,1387,1388,
1396,1397,1398,1399,1400,
1408,1409,1410,1411,1412
365,
785,786,787,788,789,
797,798,799,800,801,
809,810,811,812,813,
821,822,823,824,825,
833,834,835,836,837,
929,930,931,932,933,
941,942,943,944,945,
953,954,955,956,957,
965,966,967,968,969,
977,978,979,980,981,
1073,1074,1075,1076,1077,
1085,1086,1087,1088,1089,
1097,1098,1099,1100,1101,
1109,1110,1111,1112,1113,
1121,1122,1123,1124,1125,
1217,1218,1219,1220,1221,
1229,1230,1231,1232,1233,
1241,1242,1243,1244,1245,
1253,1254,1255,1256,1257,
1265,1266,1267,1268,1269,
1361,1362,1363,1364,1365,
1373,1374,1375,1376,1377,
1385,1386,1387,1388,1389,
1397,1398,1399,1400,1401,
1409,1410,1411,1412,1413
366,
786,787,788,789,790,
798,799,800,801,802,
810,811,812,813,814,
822,823,824,825,826,
834,835,836,837,838,
930,931,932,933,934,
942,943,944,945,946,
954,955,956,957,958,
966,967,968,969,970,
978,979,980,981,982,
1074,1075,1076,1077,1078,
1086,1087,1088,1089,1090,
1098,1099,1100,1101,1102,
1110,1111,1112,1113,1114,
1122,1123,1124,1125,1126,
1218,1219,1220,1221,1222,
1230,1231,1232,1233,1234,
1242,1243,1244,1245,1246,
1254,1255,1256,1257,1258,
1266,1267,1268,1269,1270,
1362,1363,1364,1365,1366,
1374,1375,1376,1377,1378,
1386,1387,1388,1389,1390,
1398,1399,1400,1401,1402,
1410,1411,1412,1413,1414
367,
787,788,789,790,791,
799,800,801,802,803,
811,812,813,814,815,
823,824,825,826,827,
835,836,837,838,839,
931,932,933,934,935,
943,944,945,946,947,
955,956,957,958,959,
967,968,969,970,971,
979,980,981,982,983,
1075,1076,1077,1078,1079,
1087,1088,1089,1090,1091,
1099,1100,1101,1102,1103,
1111,1112,1113,1114,1115,
1123,1124,1125,1126,1127,
1219,1220,1221,1222,1223,
1231,1232,1233,1234,1235,
1243,1244,1245,1246,1247,
1255,1256,1257,1258,1259,
1267,1268,1269,1270,1271,
1363,1364,1365,1366,1367,
1375,1376,1377,1378,1379,
1387,1388,1389,1390,1391,
1399,1400,1401,1402,1403,
1411,1412,1413,1414,1415
368,
788,789,790,791,792,
800,801,802,803,804,
812,813,814,815,816,
824,825,826,827,828,
836,837,838,839,840,
932,933,934,935,936,
944,945,946,947,948,
956,957,958,959,960,
968,969,970,971,972,
980,981,982,983,984,
1076,1077,1078,1079,1080,
1088,1089,1090,1091,1092,
1100,1101,1102,1103,1104,
1112,1113,1114,1115,1116,
1124,1125,1126,1127,1128,
1220,1221,1222,1223,1224,
1232,1233,1234,1235,1236,
1244,1245,1246,1247,1248,
1256,1257,1258,1259,1260,
1268,1269,1270,1271,1272,
1364,1365,1366,1367,1368,
1376,1377,1378,1379,1380,
1388,1389,1390,1391,1392,
1400,1401,1402,1403,1404,
1412,1413,1414,1415,1416
369,
793,794,795,796,797,
805,806,807,808,809,
817,818,819,820,821,
829,830,831,832,833,
841,842,843,844,845,
937,938,939,940,941,
949,950,951,952,953,
961,962,963,964,965,
973,974,975,976,977,
985,986,987,988,989,
1081,1082,1083,1084,1085,
1093,1094,1095,1096,1097,
1105,1106,1107,1108,1109,
1117,1118,1119,1120,1121,
1129,1130,1131,1132,1133,
1225,1226,1227,1228,1229,
1237,1238,1239,1240,1241,
1249,1250,1251,1252,1253,
1261,1262,1263,1264,1265,
1273,1274,1275,1276,1277,
1369,1370,1371,1372,1373,
1381,1382,1383,1384,1385,
1393,1394,1395,1396,1397,
1405,1406,1407,1408,1409,
1417,1418,1419,1420,1421
370,
794,795,796,797,798,
806,807,808,809,810,
818,819,820,821,822,
830,831,832,833,834,
842,843,844,845,846,
938,939,940,941,942,
950,951,952,953,954,
962,963,964,965,966,
974,975,976,977,978,
986,987,988,989,990,
1082,1083,1084,1085,1086,
1094,1095,1096,1097,1098,
1106,1107,1108,1109,1110,
1118,1119,1120,1121,1122,
1130,1131,1132,1133,1134,
1226,1227,1228,1229,1230,
1238,1239,1240,1241,1242,
1250,1251,1252,1253,1254,
1262,1263,1264,1265,1266,
1274,1275,1276,1277,1278,
1370,1371,1372,1373,1374,
1382,1383,1384,1385,1386,
1394,1395,1396,1397,1398,
1406,1407,1408,1409,1410,
1418,1419,1420,1421,1422
371,
795,796,797,798,799,
807,808,809,810,811,
819,820,821,822,823,
831,832,833,834,835,
843,844,845,846,847,
939,940,941,942,943,
951,952,953,954,955,
963,964,965,966,967,
975,976,977,978,979,
987,988,989,990,991,
1083,1084,1085,1086,1087,
1095,1096,1097,1098,1099,
1107,1108,1109,1110,1111,
1119,1120,1121,1122,1123,
1131,1132,1133,1134,1135,
1227,1228,1229,1230,1231,
1239,1240,1241,1242,1243,
1251,1252,1253,1254,1255,
1263,1264,1265,1266,1267,
1275,1276,1277,1278,1279,
1371,1372,1373,1374,1375,
1383,1384,1385,1386,1387,
1395,1396,1397,1398,1399,
1407,1408,1409,1410,1411,
1419,1420,1421,1422,1423
372,
796,797,798,799,800,
808,809,810,811,812,
820,821,822,823,824,
832,833,834,835,836,
844,845,846,847,848,
940,941,942,943,944,
952,953,954,955,956,
964,965,966,967,968,
976,977,978,979,980,
988,989,990,991,992,
1084,1085,1086,1087,1088,
1096,1097,1098,1099,1100,
1108,1109,1110,1111,1112,
1120,1121,1122,1123,1124,
1132,1133,1134,1135,1136,
1228,1229,1230,1231,1232,
1240,1241,1242,1243,1244,
1252,1253,1254,1255,1256,
1264,1265,1266,1267,1268,
1276,1277,1278,1279,1280,
1372,1373,1374,1375,1376,
1384,1385,1386,1387,1388,
1396,1397,1398,1399,1400,
1408,1409,1410,1411,1412,
1420,1421,1422,1423,1424
373,
797,798,799,800,801,
809,810,811,812,813,
821,822,823,824,825,
833,834,835,836,837,
845,846,847,848,849,
941,942,943,944,945,
953,954,955,956,957,
965,966,967,968,969,
977,978,979,980,981,
989,990,991,992,993,
1085,1086,1087,1088,1089,
1097,1098,1099,1100,1101,
1109,1110,1111,1112,1113,
1121,1122,1123,1124,1125,
1133,1134,1135,1136,1137,
1229,1230,1231,1232,1233,
1241,1242,1243,1244,1245,
1253,1254,1255,1256,1257,
1265,1266,1267,1268,1269,
1277,1278,1279,1280,1281,
1373,1374,1375,1376,1377,
1385,1386,1387,1388,1389,
1397,1398,1399,1400,1401,
1409,1410,1411,1412,1413,
1421,1422,1423,1424,1425
374,
798,799,800,801,802,
810,811,812,813,814,
822,823,824,825,826,
834,835,836,837,838,
846,847,848,849,850,
942,943,944,945,946,
954,955,956,957,958,
966,967,968,969,970,
978,979,980,981,982,
990,991,992,993,994,
1086,1087,1088,1089,1090,
1098,1099,1100,1101,1102,
1110,1111,1112,1113,1114,
1122,1123,1124,1125,1126,
1134,1135,1136,1137,1138,
1230,1231,1232,1233,1234,
1242,1243,1244,1245,1246,
1254,1255,1256,1257,1258,
1266,1267,1268,1269,1270,
1278,1279,1280,1281,1282,
1374,1375,1376,1377,1378,
1386,1387,1388,1389,1390,
1398,1399,1400,1401,1402,
1410,1411,1412,1413,1414,
1422,1423,1424,1425,1426
375,
799,800,801,802,803,
811,812,813,814,815,
823,824,825,826,827,
835,836,837,838,839,
847,848,849,850,851,
943,944,945,946,947,
955,956,957,958,959,
967,968,969,970,971,
979,980,981,982,983,
991,992,993,994,995,
1087,1088,1089,1090,1091,
1099,1100,1101,1102,1103,
1111,1112,1113,1114,1115,
1123,1124,1125,1126,1127,
1135,1136,1137,1138,1139,
1231,1232,1233,1234,1235,
1243,1244,1245,1246,1247,
1255,1256,1257,1258,1259,
1267,1268,1269,1270,1271,
1279,1280,1281,1282,1283,
1375,1376,1377,1378,1379,
1387,1388,1389,1390,1391,
1399,1400,1401,1402,1403,
1411,1412,1413,1414,1415,
1423,1424,1425,1426,1427
376,
800,801,802,803,804,
812,813,814,815,816,
824,825,826,827,828,
836,837,838,839,840,
848,849,850,851,852,
944,945,946,947,948,
956,957,958,959,960,
968,969,970,971,972,
980,981,982,983,984,
992,993,994,995,996,
1088,1089,1090,1091,1092,
1100,1101,1102,1103,1104,
1112,1113,1114,1115,1116,
1124,1125,1126,1127,1128,
1136,1137,1138,1139,1140,
1232,1233,1234,1235,1236,
1244,1245,1246,1247,1248,
1256,1257,1258,1259,1260,
1268,1269,1270,1271,1272,
1280,1281,1282,1283,1284,
1376,1377,1378,1379,1380,
1388,1389,1390,1391,1392,
1400,1401,1402,1403,1404,
1412,1413,1414,1415,1416,
1424,1425,1426,1427,1428
377,
805,806,807,808,809,
817,818,819,820,821,
829,830,831,832,833,
841,842,843,844,845,
853,854,855,856,857,
949,950,951,952,953,
961,962,963,964,965,
973,974,975,976,977,
985,986,987,988,989,
997,998,999,1000,1001,
1093,1094,1095,1096,1097,
1105,1106,1107,1108,1109,
1117,1118,1119,1120,1121,
1129,1130,1131,1132,1133,
1141,1142,1143,1144,1145,
1237,1238,1239,1240,1241,
1249,1250,1251,1252,1253,
1261,1262,1263,1264,1265,
1273,1274,1275,1276,1277,
1285,1286,1287,1288,1289,
1381,1382,1383,1384,1385,
1393,1394,1395,1396,1397,
1405,1406,1407,1408,1409,
1417,1418,1419,1420,1421,
1429,1430,1431,1432,1433
378,
806,807,808,809,810,
818,819,820,821,822,
830,831,832,833,834,
842,843,844,845,846,
854,855,856,857,858,
950,951,952,953,954,
962,963,964,965,966,
974,975,976,977,978,
986,987,988,989,990,
998,999,1000,1001,1002,
1094,1095,1096,1097,1098,
1106,1107,1108,1109,1110,
1118,1119,1120,1121,1122,
1130,1131,1132,1133,1134,
1142,1143,1144,1145,1146,
1238,1239,1240,1241,1242,
1250,1251,1252,1253,1254,
1262,1263,1264,1265,1266,
1274,1275,1276,1277,1278,
1286,1287,1288,1289,1290,
1382,1383,1384,1385,1386,
1394,1395,1396,1397,1398,
1406,1407,1408,1409,1410,
1418,1419,1420,1421,1422,
1430,1431,1432,1433,1434
379,
807,808,809,810,811,
819,820,821,822,823,
831,832,833,834,835,
843,844,845,846,847,
855,856,857,858,859,
951,952,953,954,955,
963,964,965,966,967,
975,976,977,978,979,
987,988,989,990,991,
999,1000,1001,1002,1003,
1095,1096,1097,1098,1099,
1107,1108,1109,1110,1111,
1119,1120,1121,1122,1123,
1131,1132,1133,1134,1135,
1143,1144,1145,1146,1147,
1239,1240,1241,1242,1243,
1251,1252,1253,1254,1255,
1263,1264,1265,1266,1267,
1275,1276,1277,1278,1279,
1287,1288,1289,1290,1291,
1383,1384,1385,1386,1387,
1395,1396,1397,1398,1399,
1407,1408,1409,1410,1411,
1419,1420,1421,1422,1423,
1431,1432,1433,1434,1435
380,
808,809,810,811,812,
820,821,822,823,824,
832,833,834,835,836,
844,845,846,847,848,
856,857,858,859,860,
952,953,954,955,956,
964,965,966,967,968,
976,977,978,979,980,
988,989,990,991,992,
1000,1001,1002,1003,1004,
1096,1097,1098,1099,1100,
1108,1109,1110,1111,1112,
1120,1121,1122,1123,1124,
1132,1133,1134,1135,1136,
1144,1145,1146,1147,1148,
1240,1241,1242,1243,1244,
1252,1253,1254,1255,1256,
1264,1265,1266,1267,1268,
1276,1277,1278,1279,1280,
1288,1289,1290,1291,1292,
1384,1385,1386,1387,1388,
1396,1397,1398,1399,1400,
1408,1409,1410,1411,1412,
1420,1421,1422,1423,1424,
1432,1433,1434,1435,1436
381,
809,810,811,812,813,
821,822,823,824,825,
833,834,835,836,837,
845,846,847,848,849,
857,858,859,860,861,
953,954,955,956,957,
965,966,967,968,969,
977,978,979,980,981,
989,990,991,992,993,
1001,1002,1003,1004,1005,
1097,1098,1099,1100,1101,
1109,1110,1111,1112,1113,
1121,1122,1123,1124,1125,
1133,1134,1135,1136,1137,
1145,1146,1147,1148,1149,
1241,1242,1243,1244,1245,
1253,1254,1255,1256,1257,
1265,1266,1267,1268,1269,
1277,1278,1279,1280,1281,
1289,1290,1291,1292,1293,
1385,1386,1387,1388,1389,
1397,1398,1399,1400,1401,
1409,1410,1411,1412,1413,
1421,1422,1423,1424,1425,
1433,1434,1435,1436,1437
382,
810,811,812,813,814,
822,823,824,825,826,
834,835,836,837,838,
846,847,848,849,850,
858,859,860,861,862,
954,955,956,957,958,
966,967,968,969,970,
978,979,980,981,982,
990,991,992,993,994,
1002,1003,1004,1005,1006,
1098,1099,1100,1101,1102,
1110,1111,1112,1113,1114,
1122,1123,1124,1125,1126,
1134,1135,1136,1137,1138,
1146,1147,1148,1149,1150,
1242,1243,1244,1245,1246,
1254,1255,1256,1257,1258,
1266,1267,1268,1269,1270,
1278,1279,1280,1281,1282,
1290,1291,1292,1293,1294,
1386,1387,1388,1389,1390,
1398,1399,1400,1401,1402,
1410,1411,1412,1413,1414,
1422,1423,1424,1425,1426,
1434,1435,1436,1437,1438
383,
811,812,813,814,815,
823,824,825,826,827,
835,836,837,838,839,
847,848,849,850,851,
859,860,861,862,863,
955,956,957,958,959,
967,968,969,970,971,
979,980,981,982,983,
991,992,993,994,995,
1003,1004,1005,1006,1007,
1099,1100,1101,1102,1103,
1111,1112,1113,1114,1115,
1123,1124,1125,1126,1127,
1135,1136,1137,1138,1139,
1147,1148,1149,1150,1151,
1243,1244,1245,1246,1247,
1255,1256,1257,1258,1259,
1267,1268,1269,1270,1271,
1279,1280,1281,1282,1283,
1291,1292,1293,1294,1295,
1387,1388,1389,1390,1391,
1399,1400,1401,1402,1403,
1411,1412,1413,1414,1415,
1423,1424,1425,1426,1427,
1435,1436,1437,1438,1439
384,
812,813,814,815,816,
824,825,826,827,828,
836,837,838,839,840,
848,849,850,851,852,
860,861,862,863,864,
956,957,958,959,960,
968,969,970,971,972,
980,981,982,983,984,
992,993,994,995,996,
1004,1005,1006,1007,1008,
1100,1101,1102,1103,1104,
1112,1113,1114,1115,1116,
1124,1125,1126,1127,1128,
1136,1137,1138,1139,1140,
1148,1149,1150,1151,1152,
1244,1245,1246,1247,1248,
1256,1257,1258,1259,1260,
1268,1269,1270,1271,1272,
1280,1281,1282,1283,1284,
1292,1293,1294,1295,1296,
1388,1389,1390,1391,1392,
1400,1401,1402,1403,1404,
1412,1413,1414,1415,1416,
1424,1425,1426,1427,1428,
1436,1437,1438,1439,1440
385,
865,866,867,868,869,
877,878,879,880,881,
889,890,891,892,893,
901,902,903,904,905,
913,914,915,916,917,
1009,1010,1011,1012,1013,
1021,1022,1023,1024,1025,
1033,1034,1035,1036,1037,
1045,1046,1047,1048,1049,
1057,1058,1059,1060,1061,
1153,1154,1155,1156,1157,
1165,1166,1167,1168,1169,
1177,1178,1179,1180,1181,
1189,1190,1191,1192,1193,
1201,1202,1203,1204,1205,
1297,1298,1299,1300,1301,
1309,1310,1311,1312,1313,
1321,1322,1323,1324,1325,
1333,1334,1335,1336,1337,
1345,1346,1347,1348,1349,
1441,1442,1443,1444,1445,
1453,1454,1455,1456,1457,
1465,1466,1467,1468,1469,
1477,1478,1479,1480,1481,
1489,1490,1491,1492,1493
386,
866,867,868,869,870,
878,879,880,881,882,
890,891,892,893,894,
902,903,904,905,906,
914,915,916,917,918,
1010,1011,1012,1013,1014,
1022,1023,1024,1025,1026,
1034,1035,1036,1037,1038,
1046,1047,1048,1049,1050,
1058,1059,1060,1061,1062,
1154,1155,1156,1157,1158,
1166,1167,1168,1169,1170,
1178,1179,1180,1181,1182,
1190,1191,1192,1193,1194,
1202,1203,1204,1205,1206,
1298,1299,1300,1301,1302,
1310,1311,1312,1313,1314,
1322,1323,1324,1325,1326,
1334,1335,1336,1337,1338,
1346,1347,1348,1349,1350,
1442,1443,1444,1445,1446,
1454,1455,1456,1457,1458,
1466,1467,1468,1469,1470,
1478,1479,1480,1481,1482,
1490,1491,1492,1493,1494
387,
867,868,869,870,871,
879,880,881,882,883,
891,892,893,894,895,
903,904,905,906,907,
915,916,917,918,919,
1011,1012,1013,1014,1015,
1023,1024,1025,1026,1027,
1035,1036,1037,1038,1039,
1047,1048,1049,1050,1051,
1059,1060,1061,1062,1063,
1155,1156,1157,1158,1159,
1167,1168,1169,1170,1171,
1179,1180,1181,1182,1183,
1191,1192,1193,1194,1195,
1203,1204,1205,1206,1207,
1299,1300,1301,1302,1303,
1311,1312,1313,1314,1315,
1323,1324,1325,1326,1327,
1335,1336,1337,1338,1339,
1347,1348,1349,1350,1351,
1443,1444,1445,1446,1447,
1455,1456,1457,1458,1459,
1467,1468,1469,1470,1471,
1479,1480,1481,1482,1483,
1491,1492,1493,1494,1495
388,
868,869,870,871,872,
880,881,882,883,884,
892,893,894,895,896,
904,905,906,907,908,
916,917,918,919,920,
1012,1013,1014,1015,1016,
1024,1025,1026,1027,1028,
1036,1037,1038,1039,1040,
1048,1049,1050,1051,1052,
1060,1061,1062,1063,1064,
1156,1157,1158,1159,1160,
1168,1169,1170,1171,1172,
1180,1181,1182,1183,1184,
1192,1193,1194,1195,1196,
1204,1205,1206,1207,1208,
1300,1301,1302,1303,1304,
1312,1313,1314,1315,1316,
1324,1325,1326,1327,1328,
1336,1337,1338,1339,1340,
1348,1349,1350,1351,1352,
1444,1445,1446,1447,1448,
1456,1457,1458,1459,1460,
1468,1469,1470,1471,1472,
1480,1481,1482,1483,1484,
1492,1493,1494,1495,1496
389,
869,870,871,872,873,
881,882,883,884,885,
893,894,895,896,897,
905,906,907,908,909,
917,918,919,920,921,
1013,1014,1015,1016,1017,
1025,1026,1027,1028,1029,
1037,1038,1039,1040,1041,
1049,1050,1051,1052,1053,
1061,1062,1063,1064,1065,
1157,1158,1159,1160,1161,
1169,1170,1171,1172,1173,
1181,1182,1183,1184,1185,
1193,1194,1195,1196,1197,
1205,1206,1207,1208,1209,
1301,1302,1303,1304,1305,
1313,1314,1315,1316,1317,
1325,1326,1327,1328,1329,
1337,1338,1339,1340,1341,
1349,1350,1351,1352,1353,
1445,1446,1447,1448,1449,
1457,1458,1459,1460,1461,
1469,1470,1471,1472,1473,
1481,1482,1483,1484,1485,
1493,1494,1495,1496,1497
390,
870,871,872,873,874,
882,883,884,885,886,
894,895,896,897,898,
906,907,908,909,910,
918,919,920,921,922,
1014,1015,1016,1017,1018,
1026,1027,1028,1029,1030,
1038,1039,1040,1041,1042,
1050,1051,1052,1053,1054,
1062,1063,1064,1065,1066,
1158,1159,1160,1161,1162,
1170,1171,1172,1173,1174,
1182,1183,1184,1185,1186,
1194,1195,1196,1197,1198,
1206,1207,1208,1209,1210,
1302,1303,1304,1305,1306,
1314,1315,1316,1317,1318,
1326,1327,1328,1329,1330,
1338,1339,1340,1341,1342,
1350,1351,1352,1353,1354,
1446,1447,1448,1449,1450,
1458,1459,1460,1461,1462,
1470,1471,1472,1473,1474,
1482,1483,1484,1485,1486,
1494,1495,1496,1497,1498
391,
871,872,873,874,875,
883,884,885,886,887,
895,896,897,898,899,
907,908,909,910,911,
919,920,921,922,923,
1015,1016,1017,1018,1019,
1027,1028,1029,1030,1031,
1039,1040,1041,1042,1043,
1051,1052,1053,1054,1055,
1063,1064,1065,1066,1067,
1159,1160,1161,1162,1163,
1171,1172,1173,1174,1175,
1183,1184,1185,1186,1187,
1195,1196,1197,1198,1199,
1207,1208,1209,1210,1211,
1303,1304,1305,1306,1307,
1315,1316,1317,1318,1319,
1327,1328,1329,1330,1331,
1339,1340,1341,1342,1343,
1351,1352,1353,1354,1355,
1447,1448,1449,1450,1451,
1459,1460,1461,1462,1463,
1471,1472,1473,1474,1475,
1483,1484,1485,1486,1487,
1495,1496,1497,1498,1499
392,
872,873,874,875,876,
884,885,886,887,888,
896,897,898,899,900,
908,909,910,911,912,
920,921,922,923,924,
1016,1017,1018,1019,1020,
1028,1029,1030,1031,1032,
1040,1041,1042,1043,1044,
1052,1053,1054,1055,1056,
1064,1065,1066,1067,1068,
1160,1161,1162,1163,1164,
1172,1173,1174,1175,1176,
1184,1185,1186,1187,1188,
1196,1197,1198,1199,1200,
1208,1209,1210,1211,1212,
1304,1305,1306,1307,1308,
1316,1317,1318,1319,1320,
1328,1329,1330,1331,1332,
1340,1341,1342,1343,1344,
1352,1353,1354,1355,1356,
1448,1449,1450,1451,1452,
1460,1461,1462,1463,1464,
1472,1473,1474,1475,1476,
1484,1485,1486,1487,1488,
1496,1497,1498,1499,1500
393,
877,878,879,880,881,
889,890,891,892,893,
901,902,903,904,905,
913,914,915,916,917,
925,926,927,928,929,
1021,1022,1023,1024,1025,
1033,1034,1035,1036,1037,
1045,1046,1047,1048,1049,
1057,1058,1059,1060,1061,
1069,1070,1071,1072,1073,
1165,1166,1167,1168,1169,
1177,1178,1179,1180,1181,
1189,1190,1191,1192,1193,
1201,1202,1203,1204,1205,
1213,1214,1215,1216,1217,
1309,1310,1311,1312,1313,
1321,1322,1323,1324,1325,
1333,1334,1335,1336,1337,
1345,1346,1347,1348,1349,
1357,1358,1359,1360,1361,
1453,1454,1455,1456,1457,
1465,1466,1467,1468,1469,
1477,1478,1479,1480,1481,
1489,1490,1491,1492,1493,
1501,1502,1503,1504,1505
394,
878,879,880,881,882,
890,891,892,893,894,
902,903,904,905,906,
914,915,916,917,918,
926,927,928,929,930,
1022,1023,1024,1025,1026,
1034,1035,1036,1037,1038,
1046,1047,1048,1049,1050,
1058,1059,1060,1061,1062,
1070,1071,1072,1073,1074,
1166,1167,1168,1169,1170,
1178,1179,1180,1181,1182,
1190,1191,1192,1193,1194,
1202,1203,1204,1205,1206,
1214,1215,1216,1217,1218,
1310,1311,1312,1313,1314,
1322,1323,1324,1325,1326,
1334,1335,1336,1337,1338,
1346,1347,1348,1349,1350,
1358,1359,1360,1361,1362,
1454,1455,1456,1457,1458,
1466,1467,1468,1469,1470,
1478,1479,1480,1481,1482,
1490,1491,1492,1493,1494,
1502,1503,1504,1505,1506
395,
879,880,881,882,883,
891,892,893,894,895,
903,904,905,906,907,
915,916,917,918,919,
927,928,929,930,931,
1023,1024,1025,1026,1027,
1035,1036,1037,1038,1039,
1047,1048,1049,1050,1051,
1059,1060,1061,1062,1063,
1071,1072,1073,1074,1075,
1167,1168,1169,1170,1171,
1179,1180,1181,1182,1183,
1191,1192,1193,1194,1195,
1203,1204,1205,1206,1207,
1215,1216,1217,1218,1219,
1311,1312,1313,1314,1315,
1323,1324,1325,1326,1327,
1335,1336,1337,1338,1339,
1347,1348,1349,1350,1351,
1359,1360,1361,1362,1363,
1455,1456,1457,1458,1459,
1467,1468,1469,1470,1471,
1479,1480,1481,1482,1483,
1491,1492,1493,1494,1495,
1503,1504,1505,1506,1507
396,
880,881,882,883,884,
892,893,894,895,896,
904,905,906,907,908,
916,917,918,919,920,
928,929,930,931,932,
1024,1025,1026,1027,1028,
1036,1037,1038,1039,1040,
1048,1049,1050,1051,1052,
1060,1061,1062,1063,1064,
1072,1073,1074,1075,1076,
1168,1169,1170,1171,1172,
1180,1181,1182,1183,1184,
1192,1193,1194,1195,1196,
1204,1205,1206,1207,1208,
1216,1217,1218,1219,1220,
1312,1313,1314,1315,1316,
1324,1325,1326,1327,1328,
1336,1337,1338,1339,1340,
1348,1349,1350,1351,1352,
1360,1361,1362,1363,1364,
1456,1457,1458,1459,1460,
1468,1469,1470,1471,1472,
1480,1481,1482,1483,1484,
1492,1493,1494,1495,1496,
1504,1505,1506,1507,1508
397,
881,882,883,884,885,
893,894,895,896,897,
905,906,907,908,909,
917,918,919,920,921,
929,930,931,932,933,
1025,1026,1027,1028,1029,
1037,1038,1039,1040,1041,
1049,1050,1051,1052,1053,
1061,1062,1063,1064,1065,
1073,1074,1075,1076,1077,
1169,1170,1171,1172,1173,
1181,1182,1183,1184,1185,
1193,1194,1195,1196,1197,
1205,1206,1207,1208,1209,
1217,1218,1219,1220,1221,
1313,1314,1315,1316,1317,
1325,1326,1327,1328,1329,
1337,1338,1339,1340,1341,
1349,1350,1351,1352,1353,
1361,1362,1363,1364,1365,
1457,1458,1459,1460,1461,
1469,1470,1471,1472,1473,
1481,1482,1483,1484,1485,
1493,1494,1495,1496,1497,
1505,1506,1507,1508,1509
398,
882,883,884,885,886,
894,895,896,897,898,
906,907,908,909,910,
918,919,920,921,922,
930,931,932,933,934,
1026,1027,1028,1029,1030,
1038,1039,1040,1041,1042,
1050,1051,1052,1053,1054,
1062,1063,1064,1065,1066,
1074,1075,1076,1077,1078,
1170,1171,1172,1173,1174,
1182,1183,1184,1185,1186,
1194,1195,1196,1197,1198,
1206,1207,1208,1209,1210,
1218,1219,1220,1221,1222,
1314,1315,1316,1317,1318,
1326,1327,1328,1329,1330,
1338,1339,1340,1341,1342,
1350,1351,1352,1353,1354,
1362,1363,1364,1365,1366,
1458,1459,1460,1461,1462,
1470,1471,1472,1473,1474,
1482,1483,1484,1485,1486,
1494,1495,1496,1497,1498,
1506,1507,1508,1509,1510
399,
883,884,885,886,887,
895,896,897,898,899,
907,908,909,910,911,
919,920,921,922,923,
931,932,933,934,935,
1027,1028,1029,1030,1031,
1039,1040,1041,1042,1043,
1051,1052,1053,1054,1055,
1063,1064,1065,1066,1067,
1075,1076,1077,1078,1079,
1171,1172,1173,1174,1175,
1183,1184,1185,1186,1187,
1195,1196,1197,1198,1199,
1207,1208,1209,1210,1211,
1219,1220,1221,1222,1223,
1315,1316,1317,1318,1319,
1327,1328,1329,1330,1331,
1339,1340,1341,1342,1343,
1351,1352,1353,1354,1355,
1363,1364,1365,1366,1367,
1459,1460,1461,1462,1463,
1471,1472,1473,1474,1475,
1483,1484,1485,1486,1487,
1495,1496,1497,1498,1499,
1507,1508,1509,1510,1511
400,
884,885,886,887,888,
896,897,898,899,900,
908,909,910,911,912,
920,921,922,923,924,
932,933,934,935,936,
1028,1029,1030,1031,1032,
1040,1041,1042,1043,1044,
1052,1053,1054,1055,1056,
1064,1065,1066,1067,1068,
1076,1077,1078,1079,1080,
1172,1173,1174,1175,1176,
1184,1185,1186,1187,1188,
1196,1197,1198,1199,1200,
1208,1209,1210,1211,1212,
1220,1221,1222,1223,1224,
1316,1317,1318,1319,1320,
1328,1329,1330,1331,1332,
1340,1341,1342,1343,1344,
1352,1353,1354,1355,1356,
1364,1365,1366,1367,1368,
1460,1461,1462,1463,1464,
1472,1473,1474,1475,1476,
1484,1485,1486,1487,1488,
1496,1497,1498,1499,1500,
1508,1509,1510,1511,1512
401,
889,890,891,892,893,
901,902,903,904,905,
913,914,915,916,917,
925,926,927,928,929,
937,938,939,940,941,
1033,1034,1035,1036,1037,
1045,1046,1047,1048,1049,
1057,1058,1059,1060,1061,
1069,1070,1071,1072,1073,
1081,1082,1083,1084,1085,
1177,1178,1179,1180,1181,
1189,1190,1191,1192,1193,
1201,1202,1203,1204,1205,
1213,1214,1215,1216,1217,
1225,1226,1227,1228,1229,
1321,1322,1323,1324,1325,
1333,1334,1335,1336,1337,
1345,1346,1347,1348,1349,
1357,1358,1359,1360,1361,
1369,1370,1371,1372,1373,
1465,1466,1467,1468,1469,
1477,1478,1479,1480,1481,
1489,1490,1491,1492,1493,
1501,1502,1503,1504,1505,
1513,1514,1515,1516,1517
402,
890,891,892,893,894,
902,903,904,905,906,
914,915,916,917,918,
926,927,928,929,930,
938,939,940,941,942,
1034,1035,1036,1037,1038,
1046,1047,1048,1049,1050,
1058,1059,1060,1061,1062,
1070,1071,1072,1073,1074,
1082,1083,1084,1085,1086,
1178,1179,1180,1181,1182,
1190,1191,1192,1193,1194,
1202,1203,1204,1205,1206,
1214,1215,1216,1217,1218,
1226,1227,1228,1229,1230,
1322,1323,1324,1325,1326,
1334,1335,1336,1337,1338,
1346,1347,1348,1349,1350,
1358,1359,1360,1361,1362,
1370,1371,1372,1373,1374,
1466,1467,1468,1469,1470,
1478,1479,1480,1481,1482,
1490,1491,1492,1493,1494,
1502,1503,1504,1505,1506,
1514,1515,1516,1517,1518
403,
891,892,893,894,895,
903,904,905,906,907,
915,916,917,918,919,
927,928,929,930,931,
939,940,941,942,943,
1035,1036,1037,1038,1039,
1047,1048,1049,1050,1051,
1059,1060,1061,1062,1063,
1071,1072,1073,1074,1075,
1083,1084,1085,1086,1087,
1179,1180,1181,1182,1183,
1191,1192,1193,1194,1195,
1203,1204,1205,1206,1207,
1215,1216,1217,1218,1219,
1227,1228,1229,1230,1231,
1323,1324,1325,1326,1327,
1335,1336,1337,1338,1339,
1347,1348,1349,1350,1351,
1359,1360,1361,1362,1363,
1371,1372,1373,1374,1375,
1467,1468,1469,1470,1471,
1479,1480,1481,1482,1483,
1491,1492,1493,1494,1495,
1503,1504,1505,1506,1507,
1515,1516,1517,1518,1519
404,
892,893,894,895,896,
904,905,906,907,908,
916,917,918,919,920,
928,929,930,931,932,
940,941,942,943,944,
1036,1037,1038,1039,1040,
1048,1049,1050,1051,1052,
1060,1061,1062,1063,1064,
1072,1073,1074,1075,1076,
1084,1085,1086,1087,1088,
1180,1181,1182,1183,1184,
1192,1193,1194,1195,1196,
1204,1205,1206,1207,1208,
1216,1217,1218,1219,1220,
1228,1229,1230,1231,1232,
1324,1325,1326,1327,1328,
1336,1337,1338,1339,1340,
1348,1349,1350,1351,1352,
1360,1361,1362,1363,1364,
1372,1373,1374,1375,1376,
1468,1469,1470,1471,1472,
1480,1481,1482,1483,1484,
1492,1493,1494,1495,1496,
1504,1505,1506,1507,1508,
1516,1517,1518,1519,1520
405,
893,894,895,896,897,
905,906,907,908,909,
917,918,919,920,921,
929,930,931,932,933,
941,942,943,944,945,
1037,1038,1039,1040,1041,
1049,1050,1051,1052,1053,
1061,1062,1063,1064,1065,
1073,1074,1075,1076,1077,
1085,1086,1087,1088,1089,
1181,1182,1183,1184,1185,
1193,1194,1195,1196,1197,
1205,1206,1207,1208,1209,
1217,1218,1219,1220,1221,
1229,1230,1231,1232,1233,
1325,1326,1327,1328,1329,
1337,1338,1339,1340,1341,
1349,1350,1351,1352,1353,
1361,1362,1363,1364,1365,
1373,1374,1375,1376,1377,
1469,1470,1471,1472,1473,
1481,1482,1483,1484,1485,
1493,1494,1495,1496,1497,
1505,1506,1507,1508,1509,
1517,1518,1519,1520,1521
406,
894,895,896,897,898,
906,907,908,909,910,
918,919,920,921,922,
930,931,932,933,934,
942,943,944,945,946,
1038,1039,1040,1041,1042,
1050,1051,1052,1053,1054,
1062,1063,1064,1065,1066,
1074,1075,1076,1077,1078,
1086,1087,1088,1089,1090,
1182,1183,1184,1185,1186,
1194,1195,1196,1197,1198,
1206,1207,1208,1209,1210,
1218,1219,1220,1221,1222,
1230,1231,1232,1233,1234,
1326,1327,1328,1329,1330,
1338,1339,1340,1341,1342,
1350,1351,1352,1353,1354,
1362,1363,1364,1365,1366,
1374,1375,1376,1377,1378,
1470,1471,1472,1473,1474,
1482,1483,1484,1485,1486,
1494,1495,1496,1497,1498,
1506,1507,1508,1509,1510,
1518,1519,1520,1521,1522
407,
895,896,897,898,899,
907,908,909,910,911,
919,920,921,922,923,
931,932,933,934,935,
943,944,945,946,947,
1039,1040,1041,1042,1043,
1051,1052,1053,1054,1055,
1063,1064,1065,1066,1067,
1075,1076,1077,1078,1079,
1087,1088,1089,1090,1091,
1183,1184,1185,1186,1187,
1195,1196,1197,1198,1199,
1207,1208,1209,1210,1211,
1219,1220,1221,1222,1223,
1231,1232,1233,1234,1235,
1327,1328,1329,1330,1331,
1339,1340,1341,1342,1343,
1351,1352,1353,1354,1355,
1363,1364,1365,1366,1367,
1375,1376,1377,1378,1379,
1471,1472,1473,1474,1475,
1483,1484,1485,1486,1487,
1495,1496,1497,1498,1499,
1507,1508,1509,1510,1511,
1519,1520,1521,1522,1523
408,
896,897,898,899,900,
908,909,910,911,912,
920,921,922,923,924,
932,933,934,935,936,
944,945,946,947,948,
1040,1041,1042,1043,1044,
1052,1053,1054,1055,1056,
1064,1065,1066,1067,1068,
1076,1077,1078,1079,1080,
1088,1089,1090,1091,1092,
1184,1185,1186,1187,1188,
1196,1197,1198,1199,1200,
1208,1209,1210,1211,1212,
1220,1221,1222,1223,1224,
1232,1233,1234,1235,1236,
1328,1329,1330,1331,1332,
1340,1341,1342,1343,1344,
1352,1353,1354,1355,1356,
1364,1365,1366,1367,1368,
1376,1377,1378,1379,1380,
1472,1473,1474,1475,1476,
1484,1485,1486,1487,1488,
1496,1497,1498,1499,1500,
1508,1509,1510,1511,1512,
1520,1521,1522,1523,1524
409,
901,902,903,904,905,
913,914,915,916,917,
925,926,927,928,929,
937,938,939,940,941,
949,950,951,952,953,
1045,1046,1047,1048,1049,
1057,1058,1059,1060,1061,
1069,1070,1071,1072,1073,
1081,1082,1083,1084,1085,
1093,1094,1095,1096,1097,
1189,1190,1191,1192,1193,
1201,1202,1203,1204,1205,
1213,1214,1215,1216,1217,
1225,1226,1227,1228,1229,
1237,1238,1239,1240,1241,
1333,1334,1335,1336,1337,
1345,1346,1347,1348,1349,
1357,1358,1359,1360,1361,
1369,1370,1371,1372,1373,
1381,1382,1383,1384,1385,
1477,1478,1479,1480,1481,
1489,1490,1491,1492,1493,
1501,1502,1503,1504,1505,
1513,1514,1515,1516,1517,
1525,1526,1527,1528,1529
410,
902,903,904,905,906,
914,915,916,917,918,
926,927,928,929,930,
938,939,940,941,942,
950,951,952,953,954,
1046,1047,1048,1049,1050,
1058,1059,1060,1061,1062,
1070,1071,1072,1073,1074,
1082,1083,1084,1085,1086,
1094,1095,1096,1097,1098,
1190,1191,1192,1193,1194,
1202,1203,1204,1205,1206,
1214,1215,1216,1217,1218,
1226,1227,1228,1229,1230,
1238,1239,1240,1241,1242,
1334,1335,1336,1337,1338,
1346,1347,1348,1349,1350,
1358,1359,1360,1361,1362,
1370,1371,1372,1373,1374,
1382,1383,1384,1385,1386,
1478,1479,1480,1481,1482,
1490,1491,1492,1493,1494,
1502,1503,1504,1505,1506,
1514,1515,1516,1517,1518,
1526,1527,1528,1529,1530
411,
903,904,905,906,907,
915,916,917,918,919,
927,928,929,930,931,
939,940,941,942,943,
951,952,953,954,955,
1047,1048,1049,1050,1051,
1059,1060,1061,1062,1063,
1071,1072,1073,1074,1075,
1083,1084,1085,1086,1087,
1095,1096,1097,1098,1099,
1191,1192,1193,1194,1195,
1203,1204,1205,1206,1207,
1215,1216,1217,1218,1219,
1227,1228,1229,1230,1231,
1239,1240,1241,1242,1243,
1335,1336,1337,1338,1339,
1347,1348,1349,1350,1351,
1359,1360,1361,1362,1363,
1371,1372,1373,1374,1375,
1383,1384,1385,1386,1387,
1479,1480,1481,1482,1483,
1491,1492,1493,1494,1495,
1503,1504,1505,1506,1507,
1515,1516,1517,1518,1519,
1527,1528,1529,1530,1531
412,
904,905,906,907,908,
916,917,918,919,920,
928,929,930,931,932,
940,941,942,943,944,
952,953,954,955,956,
1048,1049,1050,1051,1052,
1060,1061,1062,1063,1064,
1072,1073,1074,1075,1076,
1084,1085,1086,1087,1088,
1096,1097,1098,1099,1100,
1192,1193,1194,1195,1196,
1204,1205,1206,1207,1208,
1216,1217,1218,1219,1220,
1228,1229,1230,1231,1232,
1240,1241,1242,1243,1244,
1336,1337,1338,1339,1340,
1348,1349,1350,1351,1352,
1360,1361,1362,1363,1364,
1372,1373,1374,1375,1376,
1384,1385,1386,1387,1388,
1480,1481,1482,1483,1484,
1492,1493,1494,1495,1496,
1504,1505,1506,1507,1508,
1516,1517,1518,1519,1520,
1528,1529,1530,1531,1532
413,
905,906,907,908,909,
917,918,919,920,921,
929,930,931,932,933,
941,942,943,944,945,
953,954,955,956,957,
1049,1050,1051,1052,1053,
1061,1062,1063,1064,1065,
1073,1074,1075,1076,1077,
1085,1086,1087,1088,1089,
1097,1098,1099,1100,1101,
1193,1194,1195,1196,1197,
1205,1206,1207,1208,1209,
1217,1218,1219,1220,1221,
1229,1230,1231,1232,1233,
1241,1242,1243,1244,1245,
1337,1338,1339,1340,1341,
1349,1350,1351,1352,1353,
1361,1362,1363,1364,1365,
1373,1374,1375,1376,1377,
1385,1386,1387,1388,1389,
1481,1482,1483,1484,1485,
1493,1494,1495,1496,1497,
1505,1506,1507,1508,1509,
1517,1518,1519,1520,1521,
1529,1530,1531,1532,1533
414,
906,907,908,909,910,
918,919,920,921,922,
930,931,932,933,934,
942,943,944,945,946,
954,955,956,957,958,
1050,1051,1052,1053,1054,
1062,1063,1064,1065,1066,
1074,1075,1076,1077,1078,
1086,1087,1088,1089,1090,
1098,1099,1100,1101,1102,
1194,1195,1196,1197,1198,
1206,1207,1208,1209,1210,
1218,1219,1220,1221,1222,
1230,1231,1232,1233,1234,
1242,1243,1244,1245,1246,
1338,1339,1340,1341,1342,
1350,1351,1352,1353,1354,
1362,1363,1364,1365,1366,
1374,1375,1376,1377,1378,
1386,1387,1388,1389,1390,
1482,1483,1484,1485,1486,
1494,1495,1496,1497,1498,
1506,1507,1508,1509,1510,
1518,1519,1520,1521,1522,
1530,1531,1532,1533,1534
415,
907,908,909,910,911,
919,920,921,922,923,
931,932,933,934,935,
943,944,945,946,947,
955,956,957,958,959,
1051,1052,1053,1054,1055,
1063,1064,1065,1066,1067,
1075,1076,1077,1078,1079,
1087,1088,1089,1090,1091,
1099,1100,1101,1102,1103,
1195,1196,1197,1198,1199,
1207,1208,1209,1210,1211,
1219,1220,1221,1222,1223,
1231,1232,1233,1234,1235,
1243,1244,1245,1246,1247,
1339,1340,1341,1342,1343,
1351,1352,1353,1354,1355,
1363,1364,1365,1366,1367,
1375,1376,1377,1378,1379,
1387,1388,1389,1390,1391,
1483,1484,1485,1486,1487,
1495,1496,1497,1498,1499,
1507,1508,1509,1510,1511,
1519,1520,1521,1522,1523,
1531,1532,1533,1534,1535
416,
908,909,910,911,912,
920,921,922,923,924,
932,933,934,935,936,
944,945,946,947,948,
956,957,958,959,960,
1052,1053,1054,1055,1056,
1064,1065,1066,1067,1068,
1076,1077,1078,1079,1080,
1088,1089,1090,1091,1092,
1100,1101,1102,1103,1104,
1196,1197,1198,1199,1200,
1208,1209,1210,1211,1212,
1220,1221,1222,1223,1224,
1232,1233,1234,1235,1236,
1244,1245,1246,1247,1248,
1340,1341,1342,1343,1344,
1352,1353,1354,1355,1356,
1364,1365,1366,1367,1368,
1376,1377,1378,1379,1380,
1388,1389,1390,1391,1392,
1484,1485,1486,1487,1488,
1496,1497,1498,1499,1500,
1508,1509,1510,1511,1512,
1520,1521,1522,1523,1524,
1532,1533,1534,1535,1536
417,
913,914,915,916,917,
925,926,927,928,929,
937,938,939,940,941,
949,950,951,952,953,
961,962,963,964,965,
1057,1058,1059,1060,1061,
1069,1070,1071,1072,1073,
1081,1082,1083,1084,1085,
1093,1094,1095,1096,1097,
1105,1106,1107,1108,1109,
1201,1202,1203,1204,1205,
1213,1214,1215,1216,1217,
1225,1226,1227,1228,1229,
1237,1238,1239,1240,1241,
1249,1250,1251,1252,1253,
1345,1346,1347,1348,1349,
1357,1358,1359,1360,1361,
1369,1370,1371,1372,1373,
1381,1382,1383,1384,1385,
1393,1394,1395,1396,1397,
1489,1490,1491,1492,1493,
1501,1502,1503,1504,1505,
1513,1514,1515,1516,1517,
1525,1526,1527,1528,1529,
1537,1538,1539,1540,1541
418,
914,915,916,917,918,
926,927,928,929,930,
938,939,940,941,942,
950,951,952,953,954,
962,963,964,965,966,
1058,1059,1060,1061,1062,
1070,1071,1072,1073,1074,
1082,1083,1084,1085,1086,
1094,1095,1096,1097,1098,
1106,1107,1108,1109,1110,
1202,1203,1204,1205,1206,
1214,1215,1216,1217,1218,
1226,1227,1228,1229,1230,
1238,1239,1240,1241,1242,
1250,1251,1252,1253,1254,
1346,1347,1348,1349,1350,
1358,1359,1360,1361,1362,
1370,1371,1372,1373,1374,
1382,1383,1384,1385,1386,
1394,1395,1396,1397,1398,
1490,1491,1492,1493,1494,
1502,1503,1504,1505,1506,
1514,1515,1516,1517,1518,
1526,1527,1528,1529,1530,
1538,1539,1540,1541,1542
419,
915,916,917,918,919,
927,928,929,930,931,
939,940,941,942,943,
951,952,953,954,955,
963,964,965,966,967,
1059,1060,1061,1062,1063,
1071,1072,1073,1074,1075,
1083,1084,1085,1086,1087,
1095,1096,1097,1098,1099,
1107,1108,1109,1110,1111,
1203,1204,1205,1206,1207,
1215,1216,1217,1218,1219,
1227,1228,1229,1230,1231,
1239,1240,1241,1242,1243,
1251,1252,1253,1254,1255,
1347,1348,1349,1350,1351,
1359,1360,1361,1362,1363,
1371,1372,1373,1374,1375,
1383,1384,1385,1386,1387,
1395,1396,1397,1398,1399,
1491,1492,1493,1494,1495,
1503,1504,1505,1506,1507,
1515,1516,1517,1518,1519,
1527,1528,1529,1530,1531,
1539,1540,1541,1542,1543
420,
916,917,918,919,920,
928,929,930,931,932,
940,941,942,943,944,
952,953,954,955,956,
964,965,966,967,968,
1060,1061,1062,1063,1064,
1072,1073,1074,1075,1076,
1084,1085,1086,1087,1088,
1096,1097,1098,1099,1100,
1108,1109,1110,1111,1112,
1204,1205,1206,1207,1208,
1216,1217,1218,1219,1220,
1228,1229,1230,1231,1232,
1240,1241,1242,1243,1244,
1252,1253,1254,1255,1256,
1348,1349,1350,1351,1352,
1360,1361,1362,1363,1364,
1372,1373,1374,1375,1376,
1384,1385,1386,1387,1388,
1396,1397,1398,1399,1400,
1492,1493,1494,1495,1496,
1504,1505,1506,1507,1508,
1516,1517,1518,1519,1520,
1528,1529,1530,1531,1532,
1540,1541,1542,1543,1544
421,
917,918,919,920,921,
929,930,931,932,933,
941,942,943,944,945,
953,954,955,956,957,
965,966,967,968,969,
1061,1062,1063,1064,1065,
1073,1074,1075,1076,1077,
1085,1086,1087,1088,1089,
1097,1098,1099,1100,1101,
1109,1110,1111,1112,1113,
1205,1206,1207,1208,1209,
1217,1218,1219,1220,1221,
1229,1230,1231,1232,1233,
1241,1242,1243,1244,1245,
1253,1254,1255,1256,1257,
1349,1350,1351,1352,1353,
1361,1362,1363,1364,1365,
1373,1374,1375,1376,1377,
1385,1386,1387,1388,1389,
1397,1398,1399,1400,1401,
1493,1494,1495,1496,1497,
1505,1506,1507,1508,1509,
1517,1518,1519,1520,1521,
1529,1530,1531,1532,1533,
1541,1542,1543,1544,1545
422,
918,919,920,921,922,
930,931,932,933,934,
942,943,944,945,946,
954,955,956,957,958,
966,967,968,969,970,
1062,1063,1064,1065,1066,
1074,1075,1076,1077,1078,
1086,1087,1088,1089,1090,
1098,1099,1100,1101,1102,
1110,1111,1112,1113,1114,
1206,1207,1208,1209,1210,
1218,1219,1220,1221,1222,
1230,1231,1232,1233,1234,
1242,1243,1244,1245,1246,
1254,1255,1256,1257,1258,
1350,1351,1352,1353,1354,
1362,1363,1364,1365,1366,
1374,1375,1376,1377,1378,
1386,1387,1388,1389,1390,
1398,1399,1400,1401,1402,
1494,1495,1496,1497,1498,
1506,1507,1508,1509,1510,
1518,1519,1520,1521,1522,
1530,1531,1532,1533,1534,
1542,1543,1544,1545,1546
423,
919,920,921,922,923,
931,932,933,934,935,
943,944,945,946,947,
955,956,957,958,959,
967,968,969,970,971,
1063,1064,1065,1066,1067,
1075,1076,1077,1078,1079,
1087,1088,1089,1090,1091,
1099,1100,1101,1102,1103,
1111,1112,1113,1114,1115,
1207,1208,1209,1210,1211,
1219,1220,1221,1222,1223,
1231,1232,1233,1234,1235,
1243,1244,1245,1246,1247,
1255,1256,1257,1258,1259,
1351,1352,1353,1354,1355,
1363,1364,1365,1366,1367,
1375,1376,1377,1378,1379,
1387,1388,1389,1390,1391,
1399,1400,1401,1402,1403,
1495,1496,1497,1498,1499,
1507,1508,1509,1510,1511,
1519,1520,1521,1522,1523,
1531,1532,1533,1534,1535,
1543,1544,1545,1546,1547
424,
920,921,922,923,924,
932,933,934,935,936,
944,945,946,947,948,
956,957,958,959,960,
968,969,970,971,972,
1064,1065,1066,1067,1068,
1076,1077,1078,1079,1080,
1088,1089,1090,1091,1092,
1100,1101,1102,1103,1104,
1112,1113,1114,1115,1116,
1208,1209,1210,1211,1212,
1220,1221,1222,1223,1224,
1232,1233,1234,1235,1236,
1244,1245,1246,1247,1248,
1256,1257,1258,1259,1260,
1352,1353,1354,1355,1356,
1364,1365,1366,1367,1368,
1376,1377,1378,1379,1380,
1388,1389,1390,1391,1392,
1400,1401,1402,1403,1404,
1496,1497,1498,1499,1500,
1508,1509,1510,1511,1512,
1520,1521,1522,1523,1524,
1532,1533,1534,1535,1536,
1544,1545,1546,1547,1548
425,
925,926,927,928,929,
937,938,939,940,941,
949,950,951,952,953,
961,962,963,964,965,
973,974,975,976,977,
1069,1070,1071,1072,1073,
1081,1082,1083,1084,1085,
1093,1094,1095,1096,1097,
1105,1106,1107,1108,1109,
1117,1118,1119,1120,1121,
1213,1214,1215,1216,1217,
1225,1226,1227,1228,1229,
1237,1238,1239,1240,1241,
1249,1250,1251,1252,1253,
1261,1262,1263,1264,1265,
1357,1358,1359,1360,1361,
1369,1370,1371,1372,1373,
1381,1382,1383,1384,1385,
1393,1394,1395,1396,1397,
1405,1406,1407,1408,1409,
1501,1502,1503,1504,1505,
1513,1514,1515,1516,1517,
1525,1526,1527,1528,1529,
1537,1538,1539,1540,1541,
1549,1550,1551,1552,1553
426,
926,927,928,929,930,
938,939,940,941,942,
950,951,952,953,954,
962,963,964,965,966,
974,975,976,977,978,
1070,1071,1072,1073,1074,
1082,1083,1084,1085,1086,
1094,1095,1096,1097,1098,
1106,1107,1108,1109,1110,
1118,1119,1120,1121,1122,
1214,1215,1216,1217,1218,
1226,1227,1228,1229,1230,
1238,1239,1240,1241,1242,
1250,1251,1252,1253,1254,
1262,1263,1264,1265,1266,
1358,1359,1360,1361,1362,
1370,1371,1372,1373,1374,
1382,1383,1384,1385,1386,
1394,1395,1396,1397,1398,
1406,1407,1408,1409,1410,
1502,1503,1504,1505,1506,
1514,1515,1516,1517,1518,
1526,1527,1528,1529,1530,
1538,1539,1540,1541,1542,
1550,1551,1552,1553,1554
427,
927,928,929,930,931,
939,940,941,942,943,
951,952,953,954,955,
963,964,965,966,967,
975,976,977,978,979,
1071,1072,1073,1074,1075,
1083,1084,1085,1086,1087,
1095,1096,1097,1098,1099,
1107,1108,1109,1110,1111,
1119,1120,1121,1122,1123,
1215,1216,1217,1218,1219,
1227,1228,1229,1230,1231,
1239,1240,1241,1242,1243,
1251,1252,1253,1254,1255,
1263,1264,1265,1266,1267,
1359,1360,1361,1362,1363,
1371,1372,1373,1374,1375,
1383,1384,1385,1386,1387,
1395,1396,1397,1398,1399,
1407,1408,1409,1410,1411,
1503,1504,1505,1506,1507,
1515,1516,1517,1518,1519,
1527,1528,1529,1530,1531,
1539,1540,1541,1542,1543,
1551,1552,1553,1554,1555
428,
928,929,930,931,932,
940,941,942,943,944,
952,953,954,955,956,
964,965,966,967,968,
976,977,978,979,980,
1072,1073,1074,1075,1076,
1084,1085,1086,1087,1088,
1096,1097,1098,1099,1100,
1108,1109,1110,1111,1112,
1120,1121,1122,1123,1124,
1216,1217,1218,1219,1220,
1228,1229,1230,1231,1232,
1240,1241,1242,1243,1244,
1252,1253,1254,1255,1256,
1264,1265,1266,1267,1268,
1360,1361,1362,1363,1364,
1372,1373,1374,1375,1376,
1384,1385,1386,1387,1388,
1396,1397,1398,1399,1400,
1408,1409,1410,1411,1412,
1504,1505,1506,1507,1508,
1516,1517,1518,1519,1520,
1528,1529,1530,1531,1532,
1540,1541,1542,1543,1544,
1552,1553,1554,1555,1556
429,
929,930,931,932,933,
941,942,943,944,945,
953,954,955,956,957,
965,966,967,968,969,
977,978,979,980,981,
1073,1074,1075,1076,1077,
1085,1086,1087,1088,1089,
1097,1098,1099,1100,1101,
1109,1110,1111,1112,1113,
1121,1122,1123,1124,1125,
1217,1218,1219,1220,1221,
1229,1230,1231,1232,1233,
1241,1242,1243,1244,1245,
1253,1254,1255,1256,1257,
1265,1266,1267,1268,1269,
1361,1362,1363,1364,1365,
1373,1374,1375,1376,1377,
1385,1386,1387,1388,1389,
1397,1398,1399,1400,1401,
1409,1410,1411,1412,1413,
1505,1506,1507,1508,1509,
1517,1518,1519,1520,1521,
1529,1530,1531,1532,1533,
1541,1542,1543,1544,1545,
1553,1554,1555,1556,1557
430,
930,931,932,933,934,
942,943,944,945,946,
954,955,956,957,958,
966,967,968,969,970,
978,979,980,981,982,
1074,1075,1076,1077,1078,
1086,1087,1088,1089,1090,
1098,1099,1100,1101,1102,
1110,1111,1112,1113,1114,
1122,1123,1124,1125,1126,
1218,1219,1220,1221,1222,
1230,1231,1232,1233,1234,
1242,1243,1244,1245,1246,
1254,1255,1256,1257,1258,
1266,1267,1268,1269,1270,
1362,1363,1364,1365,1366,
1374,1375,1376,1377,1378,
1386,1387,1388,1389,1390,
1398,1399,1400,1401,1402,
1410,1411,1412,1413,1414,
1506,1507,1508,1509,1510,
1518,1519,1520,1521,1522,
1530,1531,1532,1533,1534,
1542,1543,1544,1545,1546,
1554,1555,1556,1557,1558
431,
931,932,933,934,935,
943,944,945,946,947,
955,956,957,958,959,
967,968,969,970,971,
979,980,981,982,983,
1075,1076,1077,1078,1079,
1087,1088,1089,1090,1091,
1099,1100,1101,1102,1103,
1111,1112,1113,1114,1115,
1123,1124,1125,1126,1127,
1219,1220,1221,1222,1223,
1231,1232,1233,1234,1235,
1243,1244,1245,1246,1247,
1255,1256,1257,1258,1259,
1267,1268,1269,1270,1271,
1363,1364,1365,1366,1367,
1375,1376,1377,1378,1379,
1387,1388,1389,1390,1391,
1399,1400,1401,1402,1403,
1411,1412,1413,1414,1415,
1507,1508,1509,1510,1511,
1519,1520,1521,1522,1523,
1531,1532,1533,1534,1535,
1543,1544,1545,1546,1547,
1555,1556,1557,1558,1559
432,
932,933,934,935,936,
944,945,946,947,948,
956,957,958,959,960,
968,969,970,971,972,
980,981,982,983,984,
1076,1077,1078,1079,1080,
1088,1089,1090,1091,1092,
1100,1101,1102,1103,1104,
1112,1113,1114,1115,1116,
1124,1125,1126,1127,1128,
1220,1221,1222,1223,1224,
1232,1233,1234,1235,1236,
1244,1245,1246,1247,1248,
1256,1257,1258,1259,1260,
1268,1269,1270,1271,1272,
1364,1365,1366,1367,1368,
1376,1377,1378,1379,1380,
1388,1389,1390,1391,1392,
1400,1401,1402,1403,1404,
1412,1413,1414,1415,1416,
1508,1509,1510,1511,1512,
1520,1521,1522,1523,1524,
1532,1533,1534,1535,1536,
1544,1545,1546,1547,1548,
1556,1557,1558,1559,1560
433,
937,938,939,940,941,
949,950,951,952,953,
961,962,963,964,965,
973,974,975,976,977,
985,986,987,988,989,
1081,1082,1083,1084,1085,
1093,1094,1095,1096,1097,
1105,1106,1107,1108,1109,
1117,1118,1119,1120,1121,
1129,1130,1131,1132,1133,
1225,1226,1227,1228,1229,
1237,1238,1239,1240,1241,
1249,1250,1251,1252,1253,
1261,1262,1263,1264,1265,
1273,1274,1275,1276,1277,
1369,1370,1371,1372,1373,
1381,1382,1383,1384,1385,
1393,1394,1395,1396,1397,
1405,1406,1407,1408,1409,
1417,1418,1419,1420,1421,
1513,1514,1515,1516,1517,
1525,1526,1527,1528,1529,
1537,1538,1539,1540,1541,
1549,1550,1551,1552,1553,
1561,1562,1563,1564,1565
434,
938,939,940,941,942,
950,951,952,953,954,
962,963,964,965,966,
974,975,976,977,978,
986,987,988,989,990,
1082,1083,1084,1085,1086,
1094,1095,1096,1097,1098,
1106,1107,1108,1109,1110,
1118,1119,1120,1121,1122,
1130,1131,1132,1133,1134,
1226,1227,1228,1229,1230,
1238,1239,1240,1241,1242,
1250,1251,1252,1253,1254,
1262,1263,1264,1265,1266,
1274,1275,1276,1277,1278,
1370,1371,1372,1373,1374,
1382,1383,1384,1385,1386,
1394,1395,1396,1397,1398,
1406,1407,1408,1409,1410,
1418,1419,1420,1421,1422,
1514,1515,1516,1517,1518,
1526,1527,1528,1529,1530,
1538,1539,1540,1541,1542,
1550,1551,1552,1553,1554,
1562,1563,1564,1565,1566
435,
939,940,941,942,943,
951,952,953,954,955,
963,964,965,966,967,
975,976,977,978,979,
987,988,989,990,991,
1083,1084,1085,1086,1087,
1095,1096,1097,1098,1099,
1107,1108,1109,1110,1111,
1119,1120,1121,1122,1123,
1131,1132,1133,1134,1135,
1227,1228,1229,1230,1231,
1239,1240,1241,1242,1243,
1251,1252,1253,1254,1255,
1263,1264,1265,1266,1267,
1275,1276,1277,1278,1279,
1371,1372,1373,1374,1375,
1383,1384,1385,1386,1387,
1395,1396,1397,1398,1399,
1407,1408,1409,1410,1411,
1419,1420,1421,1422,1423,
1515,1516,1517,1518,1519,
1527,1528,1529,1530,1531,
1539,1540,1541,1542,1543,
1551,1552,1553,1554,1555,
1563,1564,1565,1566,1567
436,
940,941,942,943,944,
952,953,954,955,956,
964,965,966,967,968,
976,977,978,979,980,
988,989,990,991,992,
1084,1085,1086,1087,1088,
1096,1097,1098,1099,1100,
1108,1109,1110,1111,1112,
1120,1121,1122,1123,1124,
1132,1133,1134,1135,1136,
1228,1229,1230,1231,1232,
1240,1241,1242,1243,1244,
1252,1253,1254,1255,1256,
1264,1265,1266,1267,1268,
1276,1277,1278,1279,1280,
1372,1373,1374,1375,1376,
1384,1385,1386,1387,1388,
1396,1397,1398,1399,1400,
1408,1409,1410,1411,1412,
1420,1421,1422,1423,1424,
1516,1517,1518,1519,1520,
1528,1529,1530,1531,1532,
1540,1541,1542,1543,1544,
1552,1553,1554,1555,1556,
1564,1565,1566,1567,1568
437,
941,942,943,944,945,
953,954,955,956,957,
965,966,967,968,969,
977,978,979,980,981,
989,990,991,992,993,
1085,1086,1087,1088,1089,
1097,1098,1099,1100,1101,
1109,1110,1111,1112,1113,
1121,1122,1123,1124,1125,
1133,1134,1135,1136,1137,
1229,1230,1231,1232,1233,
1241,1242,1243,1244,1245,
1253,1254,1255,1256,1257,
1265,1266,1267,1268,1269,
1277,1278,1279,1280,1281,
1373,1374,1375,1376,1377,
1385,1386,1387,1388,1389,
1397,1398,1399,1400,1401,
1409,1410,1411,1412,1413,
1421,1422,1423,1424,1425,
1517,1518,1519,1520,1521,
1529,1530,1531,1532,1533,
1541,1542,1543,1544,1545,
1553,1554,1555,1556,1557,
1565,1566,1567,1568,1569
438,
942,943,944,945,946,
954,955,956,957,958,
966,967,968,969,970,
978,979,980,981,982,
990,991,992,993,994,
1086,1087,1088,1089,1090,
1098,1099,1100,1101,1102,
1110,1111,1112,1113,1114,
1122,1123,1124,1125,1126,
1134,1135,1136,1137,1138,
1230,1231,1232,1233,1234,
1242,1243,1244,1245,1246,
1254,1255,1256,1257,1258,
1266,1267,1268,1269,1270,
1278,1279,1280,1281,1282,
1374,1375,1376,1377,1378,
1386,1387,1388,1389,1390,
1398,1399,1400,1401,1402,
1410,1411,1412,1413,1414,
1422,1423,1424,1425,1426,
1518,1519,1520,1521,1522,
1530,1531,1532,1533,1534,
1542,1543,1544,1545,1546,
1554,1555,1556,1557,1558,
1566,1567,1568,1569,1570
439,
943,944,945,946,947,
955,956,957,958,959,
967,968,969,970,971,
979,980,981,982,983,
991,992,993,994,995,
1087,1088,1089,1090,1091,
1099,1100,1101,1102,1103,
1111,1112,1113,1114,1115,
1123,1124,1125,1126,1127,
1135,1136,1137,1138,1139,
1231,1232,1233,1234,1235,
1243,1244,1245,1246,1247,
1255,1256,1257,1258,1259,
1267,1268,1269,1270,1271,
1279,1280,1281,1282,1283,
1375,1376,1377,1378,1379,
1387,1388,1389,1390,1391,
1399,1400,1401,1402,1403,
1411,1412,1413,1414,1415,
1423,1424,1425,1426,1427,
1519,1520,1521,1522,1523,
1531,1532,1533,1534,1535,
1543,1544,1545,1546,1547,
1555,1556,1557,1558,1559,
1567,1568,1569,1570,1571
440,
944,945,946,947,948,
956,957,958,959,960,
968,969,970,971,972,
980,981,982,983,984,
992,993,994,995,996,
1088,1089,1090,1091,1092,
1100,1101,1102,1103,1104,
1112,1113,1114,1115,1116,
1124,1125,1126,1127,1128,
1136,1137,1138,1139,1140,
1232,1233,1234,1235,1236,
1244,1245,1246,1247,1248,
1256,1257,1258,1259,1260,
1268,1269,1270,1271,1272,
1280,1281,1282,1283,1284,
1376,1377,1378,1379,1380,
1388,1389,1390,1391,1392,
1400,1401,1402,1403,1404,
1412,1413,1414,1415,1416,
1424,1425,1426,1427,1428,
1520,1521,1522,1523,1524,
1532,1533,1534,1535,1536,
1544,1545,1546,1547,1548,
1556,1557,1558,1559,1560,
1568,1569,1570,1571,1572
441,
949,950,951,952,953,
961,962,963,964,965,
973,974,975,976,977,
985,986,987,988,989,
997,998,999,1000,1001,
1093,1094,1095,1096,1097,
1105,1106,1107,1108,1109,
1117,1118,1119,1120,1121,
1129,1130,1131,1132,1133,
1141,1142,1143,1144,1145,
1237,1238,1239,1240,1241,
1249,1250,1251,1252,1253,
1261,1262,1263,1264,1265,
1273,1274,1275,1276,1277,
1285,1286,1287,1288,1289,
1381,1382,1383,1384,1385,
1393,1394,1395,1396,1397,
1405,1406,1407,1408,1409,
1417,1418,1419,1420,1421,
1429,1430,1431,1432,1433,
1525,1526,1527,1528,1529,
1537,1538,1539,1540,1541,
1549,1550,1551,1552,1553,
1561,1562,1563,1564,1565,
1573,1574,1575,1576,1577
442,
950,951,952,953,954,
962,963,964,965,966,
974,975,976,977,978,
986,987,988,989,990,
998,999,1000,1001,1002,
1094,1095,1096,1097,1098,
1106,1107,1108,1109,1110,
1118,1119,1120,1121,1122,
1130,1131,1132,1133,1134,
1142,1143,1144,1145,1146,
1238,1239,1240,1241,1242,
1250,1251,1252,1253,1254,
1262,1263,1264,1265,1266,
1274,1275,1276,1277,1278,
1286,1287,1288,1289,1290,
1382,1383,1384,1385,1386,
1394,1395,1396,1397,1398,
1406,1407,1408,1409,1410,
1418,1419,1420,1421,1422,
1430,1431,1432,1433,1434,
1526,1527,1528,1529,1530,
1538,1539,1540,1541,1542,
1550,1551,1552,1553,1554,
1562,1563,1564,1565,1566,
1574,1575,1576,1577,1578
443,
951,952,953,954,955,
963,964,965,966,967,
975,976,977,978,979,
987,988,989,990,991,
999,1000,1001,1002,1003,
1095,1096,1097,1098,1099,
1107,1108,1109,1110,1111,
1119,1120,1121,1122,1123,
1131,1132,1133,1134,1135,
1143,1144,1145,1146,1147,
1239,1240,1241,1242,1243,
1251,1252,1253,1254,1255,
1263,1264,1265,1266,1267,
1275,1276,1277,1278,1279,
1287,1288,1289,1290,1291,
1383,1384,1385,1386,1387,
1395,1396,1397,1398,1399,
1407,1408,1409,1410,1411,
1419,1420,1421,1422,1423,
1431,1432,1433,1434,1435,
1527,1528,1529,1530,1531,
1539,1540,1541,1542,1543,
1551,1552,1553,1554,1555,
1563,1564,1565,1566,1567,
1575,1576,1577,1578,1579
444,
952,953,954,955,956,
964,965,966,967,968,
976,977,978,979,980,
988,989,990,991,992,
1000,1001,1002,1003,1004,
1096,1097,1098,1099,1100,
1108,1109,1110,1111,1112,
1120,1121,1122,1123,1124,
1132,1133,1134,1135,1136,
1144,1145,1146,1147,1148,
1240,1241,1242,1243,1244,
1252,1253,1254,1255,1256,
1264,1265,1266,1267,1268,
1276,1277,1278,1279,1280,
1288,1289,1290,1291,1292,
1384,1385,1386,1387,1388,
1396,1397,1398,1399,1400,
1408,1409,1410,1411,1412,
1420,1421,1422,1423,1424,
1432,1433,1434,1435,1436,
1528,1529,1530,1531,1532,
1540,1541,1542,1543,1544,
1552,1553,1554,1555,1556,
1564,1565,1566,1567,1568,
1576,1577,1578,1579,1580
445,
953,954,955,956,957,
965,966,967,968,969,
977,978,979,980,981,
989,990,991,992,993,
1001,1002,1003,1004,1005,
1097,1098,1099,1100,1101,
1109,1110,1111,1112,1113,
1121,1122,1123,1124,1125,
1133,1134,1135,1136,1137,
1145,1146,1147,1148,1149,
1241,1242,1243,1244,1245,
1253,1254,1255,1256,1257,
1265,1266,1267,1268,1269,
1277,1278,1279,1280,1281,
1289,1290,1291,1292,1293,
1385,1386,1387,1388,1389,
1397,1398,1399,1400,1401,
1409,1410,1411,1412,1413,
1421,1422,1423,1424,1425,
1433,1434,1435,1436,1437,
1529,1530,1531,1532,1533,
1541,1542,1543,1544,1545,
1553,1554,1555,1556,1557,
1565,1566,1567,1568,1569,
1577,1578,1579,1580,1581
446,
954,955,956,957,958,
966,967,968,969,970,
978,979,980,981,982,
990,991,992,993,994,
1002,1003,1004,1005,1006,
1098,1099,1100,1101,1102,
1110,1111,1112,1113,1114,
1122,1123,1124,1125,1126,
1134,1135,1136,1137,1138,
1146,1147,1148,1149,1150,
1242,1243,1244,1245,1246,
1254,1255,1256,1257,1258,
1266,1267,1268,1269,1270,
1278,1279,1280,1281,1282,
1290,1291,1292,1293,1294,
1386,1387,1388,1389,1390,
1398,1399,1400,1401,1402,
1410,1411,1412,1413,1414,
1422,1423,1424,1425,1426,
1434,1435,1436,1437,1438,
1530,1531,1532,1533,1534,
1542,1543,1544,1545,1546,
1554,1555,1556,1557,1558,
1566,1567,1568,1569,1570,
1578,1579,1580,1581,1582
447,
955,956,957,958,959,
967,968,969,970,971,
979,980,981,982,983,
991,992,993,994,995,
1003,1004,1005,1006,1007,
1099,1100,1101,1102,1103,
1111,1112,1113,1114,1115,
1123,1124,1125,1126,1127,
1135,1136,1137,1138,1139,
1147,1148,1149,1150,1151,
1243,1244,1245,1246,1247,
1255,1256,1257,1258,1259,
1267,1268,1269,1270,1271,
1279,1280,1281,1282,1283,
1291,1292,1293,1294,1295,
1387,1388,1389,1390,1391,
1399,1400,1401,1402,1403,
1411,1412,1413,1414,1415,
1423,1424,1425,1426,1427,
1435,1436,1437,1438,1439,
1531,1532,1533,1534,1535,
1543,1544,1545,1546,1547,
1555,1556,1557,1558,1559,
1567,1568,1569,1570,1571,
1579,1580,1581,1582,1583
448,
956,957,958,959,960,
968,969,970,971,972,
980,981,982,983,984,
992,993,994,995,996,
1004,1005,1006,1007,1008,
1100,1101,1102,1103,1104,
1112,1113,1114,1115,1116,
1124,1125,1126,1127,1128,
1136,1137,1138,1139,1140,
1148,1149,1150,1151,1152,
1244,1245,1246,1247,1248,
1256,1257,1258,1259,1260,
1268,1269,1270,1271,1272,
1280,1281,1282,1283,1284,
1292,1293,1294,1295,1296,
1388,1389,1390,1391,1392,
1400,1401,1402,1403,1404,
1412,1413,1414,1415,1416,
1424,1425,1426,1427,1428,
1436,1437,1438,1439,1440,
1532,1533,1534,1535,1536,
1544,1545,1546,1547,1548,
1556,1557,1558,1559,1560,
1568,1569,1570,1571,1572,
1580,1581,1582,1583,1584
449,
1009,1010,1011,1012,1013,
1021,1022,1023,1024,1025,
1033,1034,1035,1036,1037,
1045,1046,1047,1048,1049,
1057,1058,1059,1060,1061,
1153,1154,1155,1156,1157,
1165,1166,1167,1168,1169,
1177,1178,1179,1180,1181,
1189,1190,1191,1192,1193,
1201,1202,1203,1204,1205,
1297,1298,1299,1300,1301,
1309,1310,1311,1312,1313,
1321,1322,1323,1324,1325,
1333,1334,1335,1336,1337,
1345,1346,1347,1348,1349,
1441,1442,1443,1444,1445,
1453,1454,1455,1456,1457,
1465,1466,1467,1468,1469,
1477,1478,1479,1480,1481,
1489,1490,1491,1492,1493,
1585,1586,1587,1588,1589,
1597,1598,1599,1600,1601,
1609,1610,1611,1612,1613,
1621,1622,1623,1624,1625,
1633,1634,1635,1636,1637
450,
1010,1011,1012,1013,1014,
1022,1023,1024,1025,1026,
1034,1035,1036,1037,1038,
1046,1047,1048,1049,1050,
1058,1059,1060,1061,1062,
1154,1155,1156,1157,1158,
1166,1167,1168,1169,1170,
1178,1179,1180,1181,1182,
1190,1191,1192,1193,1194,
1202,1203,1204,1205,1206,
1298,1299,1300,1301,1302,
1310,1311,1312,1313,1314,
1322,1323,1324,1325,1326,
1334,1335,1336,1337,1338,
1346,1347,1348,1349,1350,
1442,1443,1444,1445,1446,
1454,1455,1456,1457,1458,
1466,1467,1468,1469,1470,
1478,1479,1480,1481,1482,
1490,1491,1492,1493,1494,
1586,1587,1588,1589,1590,
1598,1599,1600,1601,1602,
1610,1611,1612,1613,1614,
1622,1623,1624,1625,1626,
1634,1635,1636,1637,1638
451,
1011,1012,1013,1014,1015,
1023,1024,1025,1026,1027,
1035,1036,1037,1038,1039,
1047,1048,1049,1050,1051,
1059,1060,1061,1062,1063,
1155,1156,1157,1158,1159,
1167,1168,1169,1170,1171,
1179,1180,1181,1182,1183,
1191,1192,1193,1194,1195,
1203,1204,1205,1206,1207,
1299,1300,1301,1302,1303,
1311,1312,1313,1314,1315,
1323,1324,1325,1326,1327,
1335,1336,1337,1338,1339,
1347,1348,1349,1350,1351,
1443,1444,1445,1446,1447,
1455,1456,1457,1458,1459,
1467,1468,1469,1470,1471,
1479,1480,1481,1482,1483,
1491,1492,1493,1494,1495,
1587,1588,1589,1590,1591,
1599,1600,1601,1602,1603,
1611,1612,1613,1614,1615,
1623,1624,1625,1626,1627,
1635,1636,1637,1638,1639
452,
1012,1013,1014,1015,1016,
1024,1025,1026,1027,1028,
1036,1037,1038,1039,1040,
1048,1049,1050,1051,1052,
1060,1061,1062,1063,1064,
1156,1157,1158,1159,1160,
1168,1169,1170,1171,1172,
1180,1181,1182,1183,1184,
1192,1193,1194,1195,1196,
1204,1205,1206,1207,1208,
1300,1301,1302,1303,1304,
1312,1313,1314,1315,1316,
1324,1325,1326,1327,1328,
1336,1337,1338,1339,1340,
1348,1349,1350,1351,1352,
1444,1445,1446,1447,1448,
1456,1457,1458,1459,1460,
1468,1469,1470,1471,1472,
1480,1481,1482,1483,1484,
1492,1493,1494,1495,1496,
1588,1589,1590,1591,1592,
1600,1601,1602,1603,1604,
1612,1613,1614,1615,1616,
1624,1625,1626,1627,1628,
1636,1637,1638,1639,1640
453,
1013,1014,1015,1016,1017,
1025,1026,1027,1028,1029,
1037,1038,1039,1040,1041,
1049,1050,1051,1052,1053,
1061,1062,1063,1064,1065,
1157,1158,1159,1160,1161,
1169,1170,1171,1172,1173,
1181,1182,1183,1184,1185,
1193,1194,1195,1196,1197,
1205,1206,1207,1208,1209,
1301,1302,1303,1304,1305,
1313,1314,1315,1316,1317,
1325,1326,1327,1328,1329,
1337,1338,1339,1340,1341,
1349,1350,1351,1352,1353,
1445,1446,1447,1448,1449,
1457,1458,1459,1460,1461,
1469,1470,1471,1472,1473,
1481,1482,1483,1484,1485,
1493,1494,1495,1496,1497,
1589,1590,1591,1592,1593,
1601,1602,1603,1604,1605,
1613,1614,1615,1616,1617,
1625,1626,1627,1628,1629,
1637,1638,1639,1640,1641
454,
1014,1015,1016,1017,1018,
1026,1027,1028,1029,1030,
1038,1039,1040,1041,1042,
1050,1051,1052,1053,1054,
1062,1063,1064,1065,1066,
1158,1159,1160,1161,1162,
1170,1171,1172,1173,1174,
1182,1183,1184,1185,1186,
1194,1195,1196,1197,1198,
1206,1207,1208,1209,1210,
1302,1303,1304,1305,1306,
1314,1315,1316,1317,1318,
1326,1327,1328,1329,1330,
1338,1339,1340,1341,1342,
1350,1351,1352,1353,1354,
1446,1447,1448,1449,1450,
1458,1459,1460,1461,1462,
1470,1471,1472,1473,1474,
1482,1483,1484,1485,1486,
1494,1495,1496,1497,1498,
1590,1591,1592,1593,1594,
1602,1603,1604,1605,1606,
1614,1615,1616,1617,1618,
1626,1627,1628,1629,1630,
1638,1639,1640,1641,1642
455,
1015,1016,1017,1018,1019,
1027,1028,1029,1030,1031,
1039,1040,1041,1042,1043,
1051,1052,1053,1054,1055,
1063,1064,1065,1066,1067,
1159,1160,1161,1162,1163,
1171,1172,1173,1174,1175,
1183,1184,1185,1186,1187,
1195,1196,1197,1198,1199,
1207,1208,1209,1210,1211,
1303,1304,1305,1306,1307,
1315,1316,1317,1318,1319,
1327,1328,1329,1330,1331,
1339,1340,1341,1342,1343,
1351,1352,1353,1354,1355,
1447,1448,1449,1450,1451,
1459,1460,1461,1462,1463,
1471,1472,1473,1474,1475,
1483,1484,1485,1486,1487,
1495,1496,1497,1498,1499,
1591,1592,1593,1594,1595,
1603,1604,1605,1606,1607,
1615,1616,1617,1618,1619,
1627,1628,1629,1630,1631,
1639,1640,1641,1642,1643
456,
1016,1017,1018,1019,1020,
1028,1029,1030,1031,1032,
1040,1041,1042,1043,1044,
1052,1053,1054,1055,1056,
1064,1065,1066,1067,1068,
1160,1161,1162,1163,1164,
1172,1173,1174,1175,1176,
1184,1185,1186,1187,1188,
1196,1197,1198,1199,1200,
1208,1209,1210,1211,1212,
1304,1305,1306,1307,1308,
1316,1317,1318,1319,1320,
1328,1329,1330,1331,1332,
1340,1341,1342,1343,1344,
1352,1353,1354,1355,1356,
1448,1449,1450,1451,1452,
1460,1461,1462,1463,1464,
1472,1473,1474,1475,1476,
1484,1485,1486,1487,1488,
1496,1497,1498,1499,1500,
1592,1593,1594,1595,1596,
1604,1605,1606,1607,1608,
1616,1617,1618,1619,1620,
1628,1629,1630,1631,1632,
1640,1641,1642,1643,1644
457,
1021,1022,1023,1024,1025,
1033,1034,1035,1036,1037,
1045,1046,1047,1048,1049,
1057,1058,1059,1060,1061,
1069,1070,1071,1072,1073,
1165,1166,1167,1168,1169,
1177,1178,1179,1180,1181,
1189,1190,1191,1192,1193,
1201,1202,1203,1204,1205,
1213,1214,1215,1216,1217,
1309,1310,1311,1312,1313,
1321,1322,1323,1324,1325,
1333,1334,1335,1336,1337,
1345,1346,1347,1348,1349,
1357,1358,1359,1360,1361,
1453,1454,1455,1456,1457,
1465,1466,1467,1468,1469,
1477,1478,1479,1480,1481,
1489,1490,1491,1492,1493,
1501,1502,1503,1504,1505,
1597,1598,1599,1600,1601,
1609,1610,1611,1612,1613,
1621,1622,1623,1624,1625,
1633,1634,1635,1636,1637,
1645,1646,1647,1648,1649
458,
1022,1023,1024,1025,1026,
1034,1035,1036,1037,1038,
1046,1047,1048,1049,1050,
1058,1059,1060,1061,1062,
1070,1071,1072,1073,1074,
1166,1167,1168,1169,1170,
1178,1179,1180,1181,1182,
1190,1191,1192,1193,1194,
1202,1203,1204,1205,1206,
1214,1215,1216,1217,1218,
1310,1311,1312,1313,1314,
1322,1323,1324,1325,1326,
1334,1335,1336,1337,1338,
1346,1347,1348,1349,1350,
1358,1359,1360,1361,1362,
1454,1455,1456,1457,1458,
1466,1467,1468,1469,1470,
1478,1479,1480,1481,1482,
1490,1491,1492,1493,1494,
1502,1503,1504,1505,1506,
1598,1599,1600,1601,1602,
1610,1611,1612,1613,1614,
1622,1623,1624,1625,1626,
1634,1635,1636,1637,1638,
1646,1647,1648,1649,1650
459,
1023,1024,1025,1026,1027,
1035,1036,1037,1038,1039,
1047,1048,1049,1050,1051,
1059,1060,1061,1062,1063,
1071,1072,1073,1074,1075,
1167,1168,1169,1170,1171,
1179,1180,1181,1182,1183,
1191,1192,1193,1194,1195,
1203,1204,1205,1206,1207,
1215,1216,1217,1218,1219,
1311,1312,1313,1314,1315,
1323,1324,1325,1326,1327,
1335,1336,1337,1338,1339,
1347,1348,1349,1350,1351,
1359,1360,1361,1362,1363,
1455,1456,1457,1458,1459,
1467,1468,1469,1470,1471,
1479,1480,1481,1482,1483,
1491,1492,1493,1494,1495,
1503,1504,1505,1506,1507,
1599,1600,1601,1602,1603,
1611,1612,1613,1614,1615,
1623,1624,1625,1626,1627,
1635,1636,1637,1638,1639,
1647,1648,1649,1650,1651
460,
1024,1025,1026,1027,1028,
1036,1037,1038,1039,1040,
1048,1049,1050,1051,1052,
1060,1061,1062,1063,1064,
1072,1073,1074,1075,1076,
1168,1169,1170,1171,1172,
1180,1181,1182,1183,1184,
1192,1193,1194,1195,1196,
1204,1205,1206,1207,1208,
1216,1217,1218,1219,1220,
1312,1313,1314,1315,1316,
1324,1325,1326,1327,1328,
1336,1337,1338,1339,1340,
1348,1349,1350,1351,1352,
1360,1361,1362,1363,1364,
1456,1457,1458,1459,1460,
1468,1469,1470,1471,1472,
1480,1481,1482,1483,1484,
1492,1493,1494,1495,1496,
1504,1505,1506,1507,1508,
1600,1601,1602,1603,1604,
1612,1613,1614,1615,1616,
1624,1625,1626,1627,1628,
1636,1637,1638,1639,1640,
1648,1649,1650,1651,1652
461,
1025,1026,1027,1028,1029,
1037,1038,1039,1040,1041,
1049,1050,1051,1052,1053,
1061,1062,1063,1064,1065,
1073,1074,1075,1076,1077,
1169,1170,1171,1172,1173,
1181,1182,1183,1184,1185,
1193,1194,1195,1196,1197,
1205,1206,1207,1208,1209,
1217,1218,1219,1220,1221,
1313,1314,1315,1316,1317,
1325,1326,1327,1328,1329,
1337,1338,1339,1340,1341,
1349,1350,1351,1352,1353,
1361,1362,1363,1364,1365,
1457,1458,1459,1460,1461,
1469,1470,1471,1472,1473,
1481,1482,1483,1484,1485,
1493,1494,1495,1496,1497,
1505,1506,1507,1508,1509,
1601,1602,1603,1604,1605,
1613,1614,1615,1616,1617,
1625,1626,1627,1628,1629,
1637,1638,1639,1640,1641,
1649,1650,1651,1652,1653
462,
1026,1027,1028,1029,1030,
1038,1039,1040,1041,1042,
1050,1051,1052,1053,1054,
1062,1063,1064,1065,1066,
1074,1075,1076,1077,1078,
1170,1171,1172,1173,1174,
1182,1183,1184,1185,1186,
1194,1195,1196,1197,1198,
1206,1207,1208,1209,1210,
1218,1219,1220,1221,1222,
1314,1315,1316,1317,1318,
1326,1327,1328,1329,1330,
1338,1339,1340,1341,1342,
1350,1351,1352,1353,1354,
1362,1363,1364,1365,1366,
1458,1459,1460,1461,1462,
1470,1471,1472,1473,1474,
1482,1483,1484,1485,1486,
1494,1495,1496,1497,1498,
1506,1507,1508,1509,1510,
1602,1603,1604,1605,1606,
1614,1615,1616,1617,1618,
1626,1627,1628,1629,1630,
1638,1639,1640,1641,1642,
1650,1651,1652,1653,1654
463,
1027,1028,1029,1030,1031,
1039,1040,1041,1042,1043,
1051,1052,1053,1054,1055,
1063,1064,1065,1066,1067,
1075,1076,1077,1078,1079,
1171,1172,1173,1174,1175,
1183,1184,1185,1186,1187,
1195,1196,1197,1198,1199,
1207,1208,1209,1210,1211,
1219,1220,1221,1222,1223,
1315,1316,1317,1318,1319,
1327,1328,1329,1330,1331,
1339,1340,1341,1342,1343,
1351,1352,1353,1354,1355,
1363,1364,1365,1366,1367,
1459,1460,1461,1462,1463,
1471,1472,1473,1474,1475,
1483,1484,1485,1486,1487,
1495,1496,1497,1498,1499,
1507,1508,1509,1510,1511,
1603,1604,1605,1606,1607,
1615,1616,1617,1618,1619,
1627,1628,1629,1630,1631,
1639,1640,1641,1642,1643,
1651,1652,1653,1654,1655
464,
1028,1029,1030,1031,1032,
1040,1041,1042,1043,1044,
1052,1053,1054,1055,1056,
1064,1065,1066,1067,1068,
1076,1077,1078,1079,1080,
1172,1173,1174,1175,1176,
1184,1185,1186,1187,1188,
1196,1197,1198,1199,1200,
1208,1209,1210,1211,1212,
1220,1221,1222,1223,1224,
1316,1317,1318,1319,1320,
1328,1329,1330,1331,1332,
1340,1341,1342,1343,1344,
1352,1353,1354,1355,1356,
1364,1365,1366,1367,1368,
1460,1461,1462,1463,1464,
1472,1473,1474,1475,1476,
1484,1485,1486,1487,1488,
1496,1497,1498,1499,1500,
1508,1509,1510,1511,1512,
1604,1605,1606,1607,1608,
1616,1617,1618,1619,1620,
1628,1629,1630,1631,1632,
1640,1641,1642,1643,1644,
1652,1653,1654,1655,1656
465,
1033,1034,1035,1036,1037,
1045,1046,1047,1048,1049,
1057,1058,1059,1060,1061,
1069,1070,1071,1072,1073,
1081,1082,1083,1084,1085,
1177,1178,1179,1180,1181,
1189,1190,1191,1192,1193,
1201,1202,1203,1204,1205,
1213,1214,1215,1216,1217,
1225,1226,1227,1228,1229,
1321,1322,1323,1324,1325,
1333,1334,1335,1336,1337,
1345,1346,1347,1348,1349,
1357,1358,1359,1360,1361,
1369,1370,1371,1372,1373,
1465,1466,1467,1468,1469,
1477,1478,1479,1480,1481,
1489,1490,1491,1492,1493,
1501,1502,1503,1504,1505,
1513,1514,1515,1516,1517,
1609,1610,1611,1612,1613,
1621,1622,1623,1624,1625,
1633,1634,1635,1636,1637,
1645,1646,1647,1648,1649,
1657,1658,1659,1660,1661
466,
1034,1035,1036,1037,1038,
1046,1047,1048,1049,1050,
1058,1059,1060,1061,1062,
1070,1071,1072,1073,1074,
1082,1083,1084,1085,1086,
1178,1179,1180,1181,1182,
1190,1191,1192,1193,1194,
1202,1203,1204,1205,1206,
1214,1215,1216,1217,1218,
1226,1227,1228,1229,1230,
1322,1323,1324,1325,1326,
1334,1335,1336,1337,1338,
1346,1347,1348,1349,1350,
1358,1359,1360,1361,1362,
1370,1371,1372,1373,1374,
1466,1467,1468,1469,1470,
1478,1479,1480,1481,1482,
1490,1491,1492,1493,1494,
1502,1503,1504,1505,1506,
1514,1515,1516,1517,1518,
1610,1611,1612,1613,1614,
1622,1623,1624,1625,1626,
1634,1635,1636,1637,1638,
1646,1647,1648,1649,1650,
1658,1659,1660,1661,1662
467,
1035,1036,1037,1038,1039,
1047,1048,1049,1050,1051,
1059,1060,1061,1062,1063,
1071,1072,1073,1074,1075,
1083,1084,1085,1086,1087,
1179,1180,1181,1182,1183,
1191,1192,1193,1194,1195,
1203,1204,1205,1206,1207,
1215,1216,1217,1218,1219,
1227,1228,1229,1230,1231,
1323,1324,1325,1326,1327,
1335,1336,1337,1338,1339,
1347,1348,1349,1350,1351,
1359,1360,1361,1362,1363,
1371,1372,1373,1374,1375,
1467,1468,1469,1470,1471,
1479,1480,1481,1482,1483,
1491,1492,1493,1494,1495,
1503,1504,1505,1506,1507,
1515,1516,1517,1518,1519,
1611,1612,1613,1614,1615,
1623,1624,1625,1626,1627,
1635,1636,1637,1638,1639,
1647,1648,1649,1650,1651,
1659,1660,1661,1662,1663
468,
1036,1037,1038,1039,1040,
1048,1049,1050,1051,1052,
1060,1061,1062,1063,1064,
1072,1073,1074,1075,1076,
1084,1085,1086,1087,1088,
1180,1181,1182,1183,1184,
1192,1193,1194,1195,1196,
1204,1205,1206,1207,1208,
1216,1217,1218,1219,1220,
1228,1229,1230,1231,1232,
1324,1325,1326,1327,1328,
1336,1337,1338,1339,1340,
1348,1349,1350,1351,1352,
1360,1361,1362,1363,1364,
1372,1373,1374,1375,1376,
1468,1469,1470,1471,1472,
1480,1481,1482,1483,1484,
1492,1493,1494,1495,1496,
1504,1505,1506,1507,1508,
1516,1517,1518,1519,1520,
1612,1613,1614,1615,1616,
1624,1625,1626,1627,1628,
1636,1637,1638,1639,1640,
1648,1649,1650,1651,1652,
1660,1661,1662,1663,1664
469,
1037,1038,1039,1040,1041,
1049,1050,1051,1052,1053,
1061,1062,1063,1064,1065,
1073,1074,1075,1076,1077,
1085,1086,1087,1088,1089,
1181,1182,1183,1184,1185,
1193,1194,1195,1196,1197,
1205,1206,1207,1208,1209,
1217,1218,1219,1220,1221,
1229,1230,1231,1232,1233,
1325,1326,1327,1328,1329,
1337,1338,1339,1340,1341,
1349,1350,1351,1352,1353,
1361,1362,1363,1364,1365,
1373,1374,1375,1376,1377,
1469,1470,1471,1472,1473,
1481,1482,1483,1484,1485,
1493,1494,1495,1496,1497,
1505,1506,1507,1508,1509,
1517,1518,1519,1520,1521,
1613,1614,1615,1616,1617,
1625,1626,1627,1628,1629,
1637,1638,1639,1640,1641,
1649,1650,1651,1652,1653,
1661,1662,1663,1664,1665
470,
1038,1039,1040,1041,1042,
1050,1051,1052,1053,1054,
1062,1063,1064,1065,1066,
1074,1075,1076,1077,1078,
1086,1087,1088,1089,1090,
1182,1183,1184,1185,1186,
1194,1195,1196,1197,1198,
1206,1207,1208,1209,1210,
1218,1219,1220,1221,1222,
1230,1231,1232,1233,1234,
1326,1327,1328,1329,1330,
1338,1339,1340,1341,1342,
1350,1351,1352,1353,1354,
1362,1363,1364,1365,1366,
1374,1375,1376,1377,1378,
1470,1471,1472,1473,1474,
1482,1483,1484,1485,1486,
1494,1495,1496,1497,1498,
1506,1507,1508,1509,1510,
1518,1519,1520,1521,1522,
1614,1615,1616,1617,1618,
1626,1627,1628,1629,1630,
1638,1639,1640,1641,1642,
1650,1651,1652,1653,1654,
1662,1663,1664,1665,1666
471,
1039,1040,1041,1042,1043,
1051,1052,1053,1054,1055,
1063,1064,1065,1066,1067,
1075,1076,1077,1078,1079,
1087,1088,1089,1090,1091,
1183,1184,1185,1186,1187,
1195,1196,1197,1198,1199,
1207,1208,1209,1210,1211,
1219,1220,1221,1222,1223,
1231,1232,1233,1234,1235,
1327,1328,1329,1330,1331,
1339,1340,1341,1342,1343,
1351,1352,1353,1354,1355,
1363,1364,1365,1366,1367,
1375,1376,1377,1378,1379,
1471,1472,1473,1474,1475,
1483,1484,1485,1486,1487,
1495,1496,1497,1498,1499,
1507,1508,1509,1510,1511,
1519,1520,1521,1522,1523,
1615,1616,1617,1618,1619,
1627,1628,1629,1630,1631,
1639,1640,1641,1642,1643,
1651,1652,1653,1654,1655,
1663,1664,1665,1666,1667
472,
1040,1041,1042,1043,1044,
1052,1053,1054,1055,1056,
1064,1065,1066,1067,1068,
1076,1077,1078,1079,1080,
1088,1089,1090,1091,1092,
1184,1185,1186,1187,1188,
1196,1197,1198,1199,1200,
1208,1209,1210,1211,1212,
1220,1221,1222,1223,1224,
1232,1233,1234,1235,1236,
1328,1329,1330,1331,1332,
1340,1341,1342,1343,1344,
1352,1353,1354,1355,1356,
1364,1365,1366,1367,1368,
1376,1377,1378,1379,1380,
1472,1473,1474,1475,1476,
1484,1485,1486,1487,1488,
1496,1497,1498,1499,1500,
1508,1509,1510,1511,1512,
1520,1521,1522,1523,1524,
1616,1617,1618,1619,1620,
1628,1629,1630,1631,1632,
1640,1641,1642,1643,1644,
1652,1653,1654,1655,1656,
1664,1665,1666,1667,1668
473,
1045,1046,1047,1048,1049,
1057,1058,1059,1060,1061,
1069,1070,1071,1072,1073,
1081,1082,1083,1084,1085,
1093,1094,1095,1096,1097,
1189,1190,1191,1192,1193,
1201,1202,1203,1204,1205,
1213,1214,1215,1216,1217,
1225,1226,1227,1228,1229,
1237,1238,1239,1240,1241,
1333,1334,1335,1336,1337,
1345,1346,1347,1348,1349,
1357,1358,1359,1360,1361,
1369,1370,1371,1372,1373,
1381,1382,1383,1384,1385,
1477,1478,1479,1480,1481,
1489,1490,1491,1492,1493,
1501,1502,1503,1504,1505,
1513,1514,1515,1516,1517,
1525,1526,1527,1528,1529,
1621,1622,1623,1624,1625,
1633,1634,1635,1636,1637,
1645,1646,1647,1648,1649,
1657,1658,1659,1660,1661,
1669,1670,1671,1672,1673
474,
1046,1047,1048,1049,1050,
1058,1059,1060,1061,1062,
1070,1071,1072,1073,1074,
1082,1083,1084,1085,1086,
1094,1095,1096,1097,1098,
1190,1191,1192,1193,1194,
1202,1203,1204,1205,1206,
1214,1215,1216,1217,1218,
1226,1227,1228,1229,1230,
1238,1239,1240,1241,1242,
1334,1335,1336,1337,1338,
1346,1347,1348,1349,1350,
1358,1359,1360,1361,1362,
1370,1371,1372,1373,1374,
1382,1383,1384,1385,1386,
1478,1479,1480,1481,1482,
1490,1491,1492,1493,1494,
1502,1503,1504,1505,1506,
1514,1515,1516,1517,1518,
1526,1527,1528,1529,1530,
1622,1623,1624,1625,1626,
1634,1635,1636,1637,1638,
1646,1647,1648,1649,1650,
1658,1659,1660,1661,1662,
1670,1671,1672,1673,1674
475,
1047,1048,1049,1050,1051,
1059,1060,1061,1062,1063,
1071,1072,1073,1074,1075,
1083,1084,1085,1086,1087,
1095,1096,1097,1098,1099,
1191,1192,1193,1194,1195,
1203,1204,1205,1206,1207,
1215,1216,1217,1218,1219,
1227,1228,1229,1230,1231,
1239,1240,1241,1242,1243,
1335,1336,1337,1338,1339,
1347,1348,1349,1350,1351,
1359,1360,1361,1362,1363,
1371,1372,1373,1374,1375,
1383,1384,1385,1386,1387,
1479,1480,1481,1482,1483,
1491,1492,1493,1494,1495,
1503,1504,1505,1506,1507,
1515,1516,1517,1518,1519,
1527,1528,1529,1530,1531,
1623,1624,1625,1626,1627,
1635,1636,1637,1638,1639,
1647,1648,1649,1650,1651,
1659,1660,1661,1662,1663,
1671,1672,1673,1674,1675
476,
1048,1049,1050,1051,1052,
1060,1061,1062,1063,1064,
1072,1073,1074,1075,1076,
1084,1085,1086,1087,1088,
1096,1097,1098,1099,1100,
1192,1193,1194,1195,1196,
1204,1205,1206,1207,1208,
1216,1217,1218,1219,1220,
1228,1229,1230,1231,1232,
1240,1241,1242,1243,1244,
1336,1337,1338,1339,1340,
1348,1349,1350,1351,1352,
1360,1361,1362,1363,1364,
1372,1373,1374,1375,1376,
1384,1385,1386,1387,1388,
1480,1481,1482,1483,1484,
1492,1493,1494,1495,1496,
1504,1505,1506,1507,1508,
1516,1517,1518,1519,1520,
1528,1529,1530,1531,1532,
1624,1625,1626,1627,1628,
1636,1637,1638,1639,1640,
1648,1649,1650,1651,1652,
1660,1661,1662,1663,1664,
1672,1673,1674,1675,1676
477,
1049,1050,1051,1052,1053,
1061,1062,1063,1064,1065,
1073,1074,1075,1076,1077,
1085,1086,1087,1088,1089,
1097,1098,1099,1100,1101,
1193,1194,1195,1196,1197,
1205,1206,1207,1208,1209,
1217,1218,1219,1220,1221,
1229,1230,1231,1232,1233,
1241,1242,1243,1244,1245,
1337,1338,1339,1340,1341,
1349,1350,1351,1352,1353,
1361,1362,1363,1364,1365,
1373,1374,1375,1376,1377,
1385,1386,1387,1388,1389,
1481,1482,1483,1484,1485,
1493,1494,1495,1496,1497,
1505,1506,1507,1508,1509,
1517,1518,1519,1520,1521,
1529,1530,1531,1532,1533,
1625,1626,1627,1628,1629,
1637,1638,1639,1640,1641,
1649,1650,1651,1652,1653,
1661,1662,1663,1664,1665,
1673,1674,1675,1676,1677
478,
1050,1051,1052,1053,1054,
1062,1063,1064,1065,1066,
1074,1075,1076,1077,1078,
1086,1087,1088,1089,1090,
1098,1099,1100,1101,1102,
1194,1195,1196,1197,1198,
1206,1207,1208,1209,1210,
1218,1219,1220,1221,1222,
1230,1231,1232,1233,1234,
1242,1243,1244,1245,1246,
1338,1339,1340,1341,1342,
1350,1351,1352,1353,1354,
1362,1363,1364,1365,1366,
1374,1375,1376,1377,1378,
1386,1387,1388,1389,1390,
1482,1483,1484,1485,1486,
1494,1495,1496,1497,1498,
1506,1507,1508,1509,1510,
1518,1519,1520,1521,1522,
1530,1531,1532,1533,1534,
1626,1627,1628,1629,1630,
1638,1639,1640,1641,1642,
1650,1651,1652,1653,1654,
1662,1663,1664,1665,1666,
1674,1675,1676,1677,1678
479,
1051,1052,1053,1054,1055,
1063,1064,1065,1066,1067,
1075,1076,1077,1078,1079,
1087,1088,1089,1090,1091,
1099,1100,1101,1102,1103,
1195,1196,1197,1198,1199,
1207,1208,1209,1210,1211,
1219,1220,1221,1222,1223,
1231,1232,1233,1234,1235,
1243,1244,1245,1246,1247,
1339,1340,1341,1342,1343,
1351,1352,1353,1354,1355,
1363,1364,1365,1366,1367,
1375,1376,1377,1378,1379,
1387,1388,1389,1390,1391,
1483,1484,1485,1486,1487,
1495,1496,1497,1498,1499,
1507,1508,1509,1510,1511,
1519,1520,1521,1522,1523,
1531,1532,1533,1534,1535,
1627,1628,1629,1630,1631,
1639,1640,1641,1642,1643,
1651,1652,1653,1654,1655,
1663,1664,1665,1666,1667,
1675,1676,1677,1678,1679
480,
1052,1053,1054,1055,1056,
1064,1065,1066,1067,1068,
1076,1077,1078,1079,1080,
1088,1089,1090,1091,1092,
1100,1101,1102,1103,1104,
1196,1197,1198,1199,1200,
1208,1209,1210,1211,1212,
1220,1221,1222,1223,1224,
1232,1233,1234,1235,1236,
1244,1245,1246,1247,1248,
1340,1341,1342,1343,1344,
1352,1353,1354,1355,1356,
1364,1365,1366,1367,1368,
1376,1377,1378,1379,1380,
1388,1389,1390,1391,1392,
1484,1485,1486,1487,1488,
1496,1497,1498,1499,1500,
1508,1509,1510,1511,1512,
1520,1521,1522,1523,1524,
1532,1533,1534,1535,1536,
1628,1629,1630,1631,1632,
1640,1641,1642,1643,1644,
1652,1653,1654,1655,1656,
1664,1665,1666,1667,1668,
1676,1677,1678,1679,1680
481,
1057,1058,1059,1060,1061,
1069,1070,1071,1072,1073,
1081,1082,1083,1084,1085,
1093,1094,1095,1096,1097,
1105,1106,1107,1108,1109,
1201,1202,1203,1204,1205,
1213,1214,1215,1216,1217,
1225,1226,1227,1228,1229,
1237,1238,1239,1240,1241,
1249,1250,1251,1252,1253,
1345,1346,1347,1348,1349,
1357,1358,1359,1360,1361,
1369,1370,1371,1372,1373,
1381,1382,1383,1384,1385,
1393,1394,1395,1396,1397,
1489,1490,1491,1492,1493,
1501,1502,1503,1504,1505,
1513,1514,1515,1516,1517,
1525,1526,1527,1528,1529,
1537,1538,1539,1540,1541,
1633,1634,1635,1636,1637,
1645,1646,1647,1648,1649,
1657,1658,1659,1660,1661,
1669,1670,1671,1672,1673,
1681,1682,1683,1684,1685
482,
1058,1059,1060,1061,1062,
1070,1071,1072,1073,1074,
1082,1083,1084,1085,1086,
1094,1095,1096,1097,1098,
1106,1107,1108,1109,1110,
1202,1203,1204,1205,1206,
1214,1215,1216,1217,1218,
1226,1227,1228,1229,1230,
1238,1239,1240,1241,1242,
1250,1251,1252,1253,1254,
1346,1347,1348,1349,1350,
1358,1359,1360,1361,1362,
1370,1371,1372,1373,1374,
1382,1383,1384,1385,1386,
1394,1395,1396,1397,1398,
1490,1491,1492,1493,1494,
1502,1503,1504,1505,1506,
1514,1515,1516,1517,1518,
1526,1527,1528,1529,1530,
1538,1539,1540,1541,1542,
1634,1635,1636,1637,1638,
1646,1647,1648,1649,1650,
1658,1659,1660,1661,1662,
1670,1671,1672,1673,1674,
1682,1683,1684,1685,1686
483,
1059,1060,1061,1062,1063,
1071,1072,1073,1074,1075,
1083,1084,1085,1086,1087,
1095,1096,1097,1098,1099,
1107,1108,1109,1110,1111,
1203,1204,1205,1206,1207,
1215,1216,1217,1218,1219,
1227,1228,1229,1230,1231,
1239,1240,1241,1242,1243,
1251,1252,1253,1254,1255,
1347,1348,1349,1350,1351,
1359,1360,1361,1362,1363,
1371,1372,1373,1374,1375,
1383,1384,1385,1386,1387,
1395,1396,1397,1398,1399,
1491,1492,1493,1494,1495,
1503,1504,1505,1506,1507,
1515,1516,1517,1518,1519,
1527,1528,1529,1530,1531,
1539,1540,1541,1542,1543,
1635,1636,1637,1638,1639,
1647,1648,1649,1650,1651,
1659,1660,1661,1662,1663,
1671,1672,1673,1674,1675,
1683,1684,1685,1686,1687
484,
1060,1061,1062,1063,1064,
1072,1073,1074,1075,1076,
1084,1085,1086,1087,1088,
1096,1097,1098,1099,1100,
1108,1109,1110,1111,1112,
1204,1205,1206,1207,1208,
1216,1217,1218,1219,1220,
1228,1229,1230,1231,1232,
1240,1241,1242,1243,1244,
1252,1253,1254,1255,1256,
1348,1349,1350,1351,1352,
1360,1361,1362,1363,1364,
1372,1373,1374,1375,1376,
1384,1385,1386,1387,1388,
1396,1397,1398,1399,1400,
1492,1493,1494,1495,1496,
1504,1505,1506,1507,1508,
1516,1517,1518,1519,1520,
1528,1529,1530,1531,1532,
1540,1541,1542,1543,1544,
1636,1637,1638,1639,1640,
1648,1649,1650,1651,1652,
1660,1661,1662,1663,1664,
1672,1673,1674,1675,1676,
1684,1685,1686,1687,1688
485,
1061,1062,1063,1064,1065,
1073,1074,1075,1076,1077,
1085,1086,1087,1088,1089,
1097,1098,1099,1100,1101,
1109,1110,1111,1112,1113,
1205,1206,1207,1208,1209,
1217,1218,1219,1220,1221,
1229,1230,1231,1232,1233,
1241,1242,1243,1244,1245,
1253,1254,1255,1256,1257,
1349,1350,1351,1352,1353,
1361,1362,1363,1364,1365,
1373,1374,1375,1376,1377,
1385,1386,1387,1388,1389,
1397,1398,1399,1400,1401,
1493,1494,1495,1496,1497,
1505,1506,1507,1508,1509,
1517,1518,1519,1520,1521,
1529,1530,1531,1532,1533,
1541,1542,1543,1544,1545,
1637,1638,1639,1640,1641,
1649,1650,1651,1652,1653,
1661,1662,1663,1664,1665,
1673,1674,1675,1676,1677,
1685,1686,1687,1688,1689
486,
1062,1063,1064,1065,1066,
1074,1075,1076,1077,1078,
1086,1087,1088,1089,1090,
1098,1099,1100,1101,1102,
1110,1111,1112,1113,1114,
1206,1207,1208,1209,1210,
1218,1219,1220,1221,1222,
1230,1231,1232,1233,1234,
1242,1243,1244,1245,1246,
1254,1255,1256,1257,1258,
1350,1351,1352,1353,1354,
1362,1363,1364,1365,1366,
1374,1375,1376,1377,1378,
1386,1387,1388,1389,1390,
1398,1399,1400,1401,1402,
1494,1495,1496,1497,1498,
1506,1507,1508,1509,1510,
1518,1519,1520,1521,1522,
1530,1531,1532,1533,1534,
1542,1543,1544,1545,1546,
1638,1639,1640,1641,1642,
1650,1651,1652,1653,1654,
1662,1663,1664,1665,1666,
1674,1675,1676,1677,1678,
1686,1687,1688,1689,1690
487,
1063,1064,1065,1066,1067,
1075,1076,1077,1078,1079,
1087,1088,1089,1090,1091,
1099,1100,1101,1102,1103,
1111,1112,1113,1114,1115,
1207,1208,1209,1210,1211,
1219,1220,1221,1222,1223,
1231,1232,1233,1234,1235,
1243,1244,1245,1246,1247,
1255,1256,1257,1258,1259,
1351,1352,1353,1354,1355,
1363,1364,1365,1366,1367,
1375,1376,1377,1378,1379,
1387,1388,1389,1390,1391,
1399,1400,1401,1402,1403,
1495,1496,1497,1498,1499,
1507,1508,1509,1510,1511,
1519,1520,1521,1522,1523,
1531,1532,1533,1534,1535,
1543,1544,1545,1546,1547,
1639,1640,1641,1642,1643,
1651,1652,1653,1654,1655,
1663,1664,1665,1666,1667,
1675,1676,1677,1678,1679,
1687,1688,1689,1690,1691
488,
1064,1065,1066,1067,1068,
1076,1077,1078,1079,1080,
1088,1089,1090,1091,1092,
1100,1101,1102,1103,1104,
1112,1113,1114,1115,1116,
1208,1209,1210,1211,1212,
1220,1221,1222,1223,1224,
1232,1233,1234,1235,1236,
1244,1245,1246,1247,1248,
1256,1257,1258,1259,1260,
1352,1353,1354,1355,1356,
1364,1365,1366,1367,1368,
1376,1377,1378,1379,1380,
1388,1389,1390,1391,1392,
1400,1401,1402,1403,1404,
1496,1497,1498,1499,1500,
1508,1509,1510,1511,1512,
1520,1521,1522,1523,1524,
1532,1533,1534,1535,1536,
1544,1545,1546,1547,1548,
1640,1641,1642,1643,1644,
1652,1653,1654,1655,1656,
1664,1665,1666,1667,1668,
1676,1677,1678,1679,1680,
1688,1689,1690,1691,1692
489,
1069,1070,1071,1072,1073,
1081,1082,1083,1084,1085,
1093,1094,1095,1096,1097,
1105,1106,1107,1108,1109,
1117,1118,1119,1120,1121,
1213,1214,1215,1216,1217,
1225,1226,1227,1228,1229,
1237,1238,1239,1240,1241,
1249,1250,1251,1252,1253,
1261,1262,1263,1264,1265,
1357,1358,1359,1360,1361,
1369,1370,1371,1372,1373,
1381,1382,1383,1384,1385,
1393,1394,1395,1396,1397,
1405,1406,1407,1408,1409,
1501,1502,1503,1504,1505,
1513,1514,1515,1516,1517,
1525,1526,1527,1528,1529,
1537,1538,1539,1540,1541,
1549,1550,1551,1552,1553,
1645,1646,1647,1648,1649,
1657,1658,1659,1660,1661,
1669,1670,1671,1672,1673,
1681,1682,1683,1684,1685,
1693,1694,1695,1696,1697
490,
1070,1071,1072,1073,1074,
1082,1083,1084,1085,1086,
1094,1095,1096,1097,1098,
1106,1107,1108,1109,1110,
1118,1119,1120,1121,1122,
1214,1215,1216,1217,1218,
1226,1227,1228,1229,1230,
1238,1239,1240,1241,1242,
1250,1251,1252,1253,1254,
1262,1263,1264,1265,1266,
1358,1359,1360,1361,1362,
1370,1371,1372,1373,1374,
1382,1383,1384,1385,1386,
1394,1395,1396,1397,1398,
1406,1407,1408,1409,1410,
1502,1503,1504,1505,1506,
1514,1515,1516,1517,1518,
1526,1527,1528,1529,1530,
1538,1539,1540,1541,1542,
1550,1551,1552,1553,1554,
1646,1647,1648,1649,1650,
1658,1659,1660,1661,1662,
1670,1671,1672,1673,1674,
1682,1683,1684,1685,1686,
1694,1695,1696,1697,1698
491,
1071,1072,1073,1074,1075,
1083,1084,1085,1086,1087,
1095,1096,1097,1098,1099,
1107,1108,1109,1110,1111,
1119,1120,1121,1122,1123,
1215,1216,1217,1218,1219,
1227,1228,1229,1230,1231,
1239,1240,1241,1242,1243,
1251,1252,1253,1254,1255,
1263,1264,1265,1266,1267,
1359,1360,1361,1362,1363,
1371,1372,1373,1374,1375,
1383,1384,1385,1386,1387,
1395,1396,1397,1398,1399,
1407,1408,1409,1410,1411,
1503,1504,1505,1506,1507,
1515,1516,1517,1518,1519,
1527,1528,1529,1530,1531,
1539,1540,1541,1542,1543,
1551,1552,1553,1554,1555,
1647,1648,1649,1650,1651,
1659,1660,1661,1662,1663,
1671,1672,1673,1674,1675,
1683,1684,1685,1686,1687,
1695,1696,1697,1698,1699
492,
1072,1073,1074,1075,1076,
1084,1085,1086,1087,1088,
1096,1097,1098,1099,1100,
1108,1109,1110,1111,1112,
1120,1121,1122,1123,1124,
1216,1217,1218,1219,1220,
1228,1229,1230,1231,1232,
1240,1241,1242,1243,1244,
1252,1253,1254,1255,1256,
1264,1265,1266,1267,1268,
1360,1361,1362,1363,1364,
1372,1373,1374,1375,1376,
1384,1385,1386,1387,1388,
1396,1397,1398,1399,1400,
1408,1409,1410,1411,1412,
1504,1505,1506,1507,1508,
1516,1517,1518,1519,1520,
1528,1529,1530,1531,1532,
1540,1541,1542,1543,1544,
1552,1553,1554,1555,1556,
1648,1649,1650,1651,1652,
1660,1661,1662,1663,1664,
1672,1673,1674,1675,1676,
1684,1685,1686,1687,1688,
1696,1697,1698,1699,1700
493,
1073,1074,1075,1076,1077,
1085,1086,1087,1088,1089,
1097,1098,1099,1100,1101,
1109,1110,1111,1112,1113,
1121,1122,1123,1124,1125,
1217,1218,1219,1220,1221,
1229,1230,1231,1232,1233,
1241,1242,1243,1244,1245,
1253,1254,1255,1256,1257,
1265,1266,1267,1268,1269,
1361,1362,1363,1364,1365,
1373,1374,1375,1376,1377,
1385,1386,1387,1388,1389,
1397,1398,1399,1400,1401,
1409,1410,1411,1412,1413,
1505,1506,1507,1508,1509,
1517,1518,1519,1520,1521,
1529,1530,1531,1532,1533,
1541,1542,1543,1544,1545,
1553,1554,1555,1556,1557,
1649,1650,1651,1652,1653,
1661,1662,1663,1664,1665,
1673,1674,1675,1676,1677,
1685,1686,1687,1688,1689,
1697,1698,1699,1700,1701
494,
1074,1075,1076,1077,1078,
1086,1087,1088,1089,1090,
1098,1099,1100,1101,1102,
1110,1111,1112,1113,1114,
1122,1123,1124,1125,1126,
1218,1219,1220,1221,1222,
1230,1231,1232,1233,1234,
1242,1243,1244,1245,1246,
1254,1255,1256,1257,1258,
1266,1267,1268,1269,1270,
1362,1363,1364,1365,1366,
1374,1375,1376,1377,1378,
1386,1387,1388,1389,1390,
1398,1399,1400,1401,1402,
1410,1411,1412,1413,1414,
1506,1507,1508,1509,1510,
1518,1519,1520,1521,1522,
1530,1531,1532,1533,1534,
1542,1543,1544,1545,1546,
1554,1555,1556,1557,1558,
1650,1651,1652,1653,1654,
1662,1663,1664,1665,1666,
1674,1675,1676,1677,1678,
1686,1687,1688,1689,1690,
1698,1699,1700,1701,1702
495,
1075,1076,1077,1078,1079,
1087,1088,1089,1090,1091,
1099,1100,1101,1102,1103,
1111,1112,1113,1114,1115,
1123,1124,1125,1126,1127,
1219,1220,1221,1222,1223,
1231,1232,1233,1234,1235,
1243,1244,1245,1246,1247,
1255,1256,1257,1258,1259,
1267,1268,1269,1270,1271,
1363,1364,1365,1366,1367,
1375,1376,1377,1378,1379,
1387,1388,1389,1390,1391,
1399,1400,1401,1402,1403,
1411,1412,1413,1414,1415,
1507,1508,1509,1510,1511,
1519,1520,1521,1522,1523,
1531,1532,1533,1534,1535,
1543,1544,1545,1546,1547,
1555,1556,1557,1558,1559,
1651,1652,1653,1654,1655,
1663,1664,1665,1666,1667,
1675,1676,1677,1678,1679,
1687,1688,1689,1690,1691,
1699,1700,1701,1702,1703
496,
1076,1077,1078,1079,1080,
1088,1089,1090,1091,1092,
1100,1101,1102,1103,1104,
1112,1113,1114,1115,1116,
1124,1125,1126,1127,1128,
1220,1221,1222,1223,1224,
1232,1233,1234,1235,1236,
1244,1245,1246,1247,1248,
1256,1257,1258,1259,1260,
1268,1269,1270,1271,1272,
1364,1365,1366,1367,1368,
1376,1377,1378,1379,1380,
1388,1389,1390,1391,1392,
1400,1401,1402,1403,1404,
1412,1413,1414,1415,1416,
1508,1509,1510,1511,1512,
1520,1521,1522,1523,1524,
1532,1533,1534,1535,1536,
1544,1545,1546,1547,1548,
1556,1557,1558,1559,1560,
1652,1653,1654,1655,1656,
1664,1665,1666,1667,1668,
1676,1677,1678,1679,1680,
1688,1689,1690,1691,1692,
1700,1701,1702,1703,1704
497,
1081,1082,1083,1084,1085,
1093,1094,1095,1096,1097,
1105,1106,1107,1108,1109,
1117,1118,1119,1120,1121,
1129,1130,1131,1132,1133,
1225,1226,1227,1228,1229,
1237,1238,1239,1240,1241,
1249,1250,1251,1252,1253,
1261,1262,1263,1264,1265,
1273,1274,1275,1276,1277,
1369,1370,1371,1372,1373,
1381,1382,1383,1384,1385,
1393,1394,1395,1396,1397,
1405,1406,1407,1408,1409,
1417,1418,1419,1420,1421,
1513,1514,1515,1516,1517,
1525,1526,1527,1528,1529,
1537,1538,1539,1540,1541,
1549,1550,1551,1552,1553,
1561,1562,1563,1564,1565,
1657,1658,1659,1660,1661,
1669,1670,1671,1672,1673,
1681,1682,1683,1684,1685,
1693,1694,1695,1696,1697,
1705,1706,1707,1708,1709
498,
1082,1083,1084,1085,1086,
1094,1095,1096,1097,1098,
1106,1107,1108,1109,1110,
1118,1119,1120,1121,1122,
1130,1131,1132,1133,1134,
1226,1227,1228,1229,1230,
1238,1239,1240,1241,1242,
1250,1251,1252,1253,1254,
1262,1263,1264,1265,1266,
1274,1275,1276,1277,1278,
1370,1371,1372,1373,1374,
1382,1383,1384,1385,1386,
1394,1395,1396,1397,1398,
1406,1407,1408,1409,1410,
1418,1419,1420,1421,1422,
1514,1515,1516,1517,1518,
1526,1527,1528,1529,1530,
1538,1539,1540,1541,1542,
1550,1551,1552,1553,1554,
1562,1563,1564,1565,1566,
1658,1659,1660,1661,1662,
1670,1671,1672,1673,1674,
1682,1683,1684,1685,1686,
1694,1695,1696,1697,1698,
1706,1707,1708,1709,1710
499,
1083,1084,1085,1086,1087,
1095,1096,1097,1098,1099,
1107,1108,1109,1110,1111,
1119,1120,1121,1122,1123,
1131,1132,1133,1134,1135,
1227,1228,1229,1230,1231,
1239,1240,1241,1242,1243,
1251,1252,1253,1254,1255,
1263,1264,1265,1266,1267,
1275,1276,1277,1278,1279,
1371,1372,1373,1374,1375,
1383,1384,1385,1386,1387,
1395,1396,1397,1398,1399,
1407,1408,1409,1410,1411,
1419,1420,1421,1422,1423,
1515,1516,1517,1518,1519,
1527,1528,1529,1530,1531,
1539,1540,1541,1542,1543,
1551,1552,1553,1554,1555,
1563,1564,1565,1566,1567,
1659,1660,1661,1662,1663,
1671,1672,1673,1674,1675,
1683,1684,1685,1686,1687,
1695,1696,1697,1698,1699,
1707,1708,1709,1710,1711
500,
1084,1085,1086,1087,1088,
1096,1097,1098,1099,1100,
1108,1109,1110,1111,1112,
1120,1121,1122,1123,1124,
1132,1133,1134,1135,1136,
1228,1229,1230,1231,1232,
1240,1241,1242,1243,1244,
1252,1253,1254,1255,1256,
1264,1265,1266,1267,1268,
1276,1277,1278,1279,1280,
1372,1373,1374,1375,1376,
1384,1385,1386,1387,1388,
1396,1397,1398,1399,1400,
1408,1409,1410,1411,1412,
1420,1421,1422,1423,1424,
1516,1517,1518,1519,1520,
1528,1529,1530,1531,1532,
1540,1541,1542,1543,1544,
1552,1553,1554,1555,1556,
1564,1565,1566,1567,1568,
1660,1661,1662,1663,1664,
1672,1673,1674,1675,1676,
1684,1685,1686,1687,1688,
1696,1697,1698,1699,1700,
1708,1709,1710,1711,1712
501,
1085,1086,1087,1088,1089,
1097,1098,1099,1100,1101,
1109,1110,1111,1112,1113,
1121,1122,1123,1124,1125,
1133,1134,1135,1136,1137,
1229,1230,1231,1232,1233,
1241,1242,1243,1244,1245,
1253,1254,1255,1256,1257,
1265,1266,1267,1268,1269,
1277,1278,1279,1280,1281,
1373,1374,1375,1376,1377,
1385,1386,1387,1388,1389,
1397,1398,1399,1400,1401,
1409,1410,1411,1412,1413,
1421,1422,1423,1424,1425,
1517,1518,1519,1520,1521,
1529,1530,1531,1532,1533,
1541,1542,1543,1544,1545,
1553,1554,1555,1556,1557,
1565,1566,1567,1568,1569,
1661,1662,1663,1664,1665,
1673,1674,1675,1676,1677,
1685,1686,1687,1688,1689,
1697,1698,1699,1700,1701,
1709,1710,1711,1712,1713
502,
1086,1087,1088,1089,1090,
1098,1099,1100,1101,1102,
1110,1111,1112,1113,1114,
1122,1123,1124,1125,1126,
1134,1135,1136,1137,1138,
1230,1231,1232,1233,1234,
1242,1243,1244,1245,1246,
1254,1255,1256,1257,1258,
1266,1267,1268,1269,1270,
1278,1279,1280,1281,1282,
1374,1375,1376,1377,1378,
1386,1387,1388,1389,1390,
1398,1399,1400,1401,1402,
1410,1411,1412,1413,1414,
1422,1423,1424,1425,1426,
1518,1519,1520,1521,1522,
1530,1531,1532,1533,1534,
1542,1543,1544,1545,1546,
1554,1555,1556,1557,1558,
1566,1567,1568,1569,1570,
1662,1663,1664,1665,1666,
1674,1675,1676,1677,1678,
1686,1687,1688,1689,1690,
1698,1699,1700,1701,1702,
1710,1711,1712,1713,1714
503,
1087,1088,1089,1090,1091,
1099,1100,1101,1102,1103,
1111,1112,1113,1114,1115,
1123,1124,1125,1126,1127,
1135,1136,1137,1138,1139,
1231,1232,1233,1234,1235,
1243,1244,1245,1246,1247,
1255,1256,1257,1258,1259,
1267,1268,1269,1270,1271,
1279,1280,1281,1282,1283,
1375,1376,1377,1378,1379,
1387,1388,1389,1390,1391,
1399,1400,1401,1402,1403,
1411,1412,1413,1414,1415,
1423,1424,1425,1426,1427,
1519,1520,1521,1522,1523,
1531,1532,1533,1534,1535,
1543,1544,1545,1546,1547,
1555,1556,1557,1558,1559,
1567,1568,1569,1570,1571,
1663,1664,1665,1666,1667,
1675,1676,1677,1678,1679,
1687,1688,1689,1690,1691,
1699,1700,1701,1702,1703,
1711,1712,1713,1714,1715
504,
1088,1089,1090,1091,1092,
1100,1101,1102,1103,1104,
1112,1113,1114,1115,1116,
1124,1125,1126,1127,1128,
1136,1137,1138,1139,1140,
1232,1233,1234,1235,1236,
1244,1245,1246,1247,1248,
1256,1257,1258,1259,1260,
1268,1269,1270,1271,1272,
1280,1281,1282,1283,1284,
1376,1377,1378,1379,1380,
1388,1389,1390,1391,1392,
1400,1401,1402,1403,1404,
1412,1413,1414,1415,1416,
1424,1425,1426,1427,1428,
1520,1521,1522,1523,1524,
1532,1533,1534,1535,1536,
1544,1545,1546,1547,1548,
1556,1557,1558,1559,1560,
1568,1569,1570,1571,1572,
1664,1665,1666,1667,1668,
1676,1677,1678,1679,1680,
1688,1689,1690,1691,1692,
1700,1701,1702,1703,1704,
1712,1713,1714,1715,1716
505,
1093,1094,1095,1096,1097,
1105,1106,1107,1108,1109,
1117,1118,1119,1120,1121,
1129,1130,1131,1132,1133,
1141,1142,1143,1144,1145,
1237,1238,1239,1240,1241,
1249,1250,1251,1252,1253,
1261,1262,1263,1264,1265,
1273,1274,1275,1276,1277,
1285,1286,1287,1288,1289,
1381,1382,1383,1384,1385,
1393,1394,1395,1396,1397,
1405,1406,1407,1408,1409,
1417,1418,1419,1420,1421,
1429,1430,1431,1432,1433,
1525,1526,1527,1528,1529,
1537,1538,1539,1540,1541,
1549,1550,1551,1552,1553,
1561,1562,1563,1564,1565,
1573,1574,1575,1576,1577,
1669,1670,1671,1672,1673,
1681,1682,1683,1684,1685,
1693,1694,1695,1696,1697,
1705,1706,1707,1708,1709,
1717,1718,1719,1720,1721
506,
1094,1095,1096,1097,1098,
1106,1107,1108,1109,1110,
1118,1119,1120,1121,1122,
1130,1131,1132,1133,1134,
1142,1143,1144,1145,1146,
1238,1239,1240,1241,1242,
1250,1251,1252,1253,1254,
1262,1263,1264,1265,1266,
1274,1275,1276,1277,1278,
1286,1287,1288,1289,1290,
1382,1383,1384,1385,1386,
1394,1395,1396,1397,1398,
1406,1407,1408,1409,1410,
1418,1419,1420,1421,1422,
1430,1431,1432,1433,1434,
1526,1527,1528,1529,1530,
1538,1539,1540,1541,1542,
1550,1551,1552,1553,1554,
1562,1563,1564,1565,1566,
1574,1575,1576,1577,1578,
1670,1671,1672,1673,1674,
1682,1683,1684,1685,1686,
1694,1695,1696,1697,1698,
1706,1707,1708,1709,1710,
1718,1719,1720,1721,1722
507,
1095,1096,1097,1098,1099,
1107,1108,1109,1110,1111,
1119,1120,1121,1122,1123,
1131,1132,1133,1134,1135,
1143,1144,1145,1146,1147,
1239,1240,1241,1242,1243,
1251,1252,1253,1254,1255,
1263,1264,1265,1266,1267,
1275,1276,1277,1278,1279,
1287,1288,1289,1290,1291,
1383,1384,1385,1386,1387,
1395,1396,1397,1398,1399,
1407,1408,1409,1410,1411,
1419,1420,1421,1422,1423,
1431,1432,1433,1434,1435,
1527,1528,1529,1530,1531,
1539,1540,1541,1542,1543,
1551,1552,1553,1554,1555,
1563,1564,1565,1566,1567,
1575,1576,1577,1578,1579,
1671,1672,1673,1674,1675,
1683,1684,1685,1686,1687,
1695,1696,1697,1698,1699,
1707,1708,1709,1710,1711,
1719,1720,1721,1722,1723
508,
1096,1097,1098,1099,1100,
1108,1109,1110,1111,1112,
1120,1121,1122,1123,1124,
1132,1133,1134,1135,1136,
1144,1145,1146,1147,1148,
1240,1241,1242,1243,1244,
1252,1253,1254,1255,1256,
1264,1265,1266,1267,1268,
1276,1277,1278,1279,1280,
1288,1289,1290,1291,1292,
1384,1385,1386,1387,1388,
1396,1397,1398,1399,1400,
1408,1409,1410,1411,1412,
1420,1421,1422,1423,1424,
1432,1433,1434,1435,1436,
1528,1529,1530,1531,1532,
1540,1541,1542,1543,1544,
1552,1553,1554,1555,1556,
1564,1565,1566,1567,1568,
1576,1577,1578,1579,1580,
1672,1673,1674,1675,1676,
1684,1685,1686,1687,1688,
1696,1697,1698,1699,1700,
1708,1709,1710,1711,1712,
1720,1721,1722,1723,1724
509,
1097,1098,1099,1100,1101,
1109,1110,1111,1112,1113,
1121,1122,1123,1124,1125,
1133,1134,1135,1136,1137,
1145,1146,1147,1148,1149,
1241,1242,1243,1244,1245,
1253,1254,1255,1256,1257,
1265,1266,1267,1268,1269,
1277,1278,1279,1280,1281,
1289,1290,1291,1292,1293,
1385,1386,1387,1388,1389,
1397,1398,1399,1400,1401,
1409,1410,1411,1412,1413,
1421,1422,1423,1424,1425,
1433,1434,1435,1436,1437,
1529,1530,1531,1532,1533,
1541,1542,1543,1544,1545,
1553,1554,1555,1556,1557,
1565,1566,1567,1568,1569,
1577,1578,1579,1580,1581,
1673,1674,1675,1676,1677,
1685,1686,1687,1688,1689,
1697,1698,1699,1700,1701,
1709,1710,1711,1712,1713,
1721,1722,1723,1724,1725
510,
1098,1099,1100,1101,1102,
1110,1111,1112,1113,1114,
1122,1123,1124,1125,1126,
1134,1135,1136,1137,1138,
1146,1147,1148,1149,1150,
1242,1243,1244,1245,1246,
1254,1255,1256,1257,1258,
1266,1267,1268,1269,1270,
1278,1279,1280,1281,1282,
1290,1291,1292,1293,1294,
1386,1387,1388,1389,1390,
1398,1399,1400,1401,1402,
1410,1411,1412,1413,1414,
1422,1423,1424,1425,1426,
1434,1435,1436,1437,1438,
1530,1531,1532,1533,1534,
1542,1543,1544,1545,1546,
1554,1555,1556,1557,1558,
1566,1567,1568,1569,1570,
1578,1579,1580,1581,1582,
1674,1675,1676,1677,1678,
1686,1687,1688,1689,1690,
1698,1699,1700,1701,1702,
1710,1711,1712,1713,1714,
1722,1723,1724,1725,1726
511,
1099,1100,1101,1102,1103,
1111,1112,1113,1114,1115,
1123,1124,1125,1126,1127,
1135,1136,1137,1138,1139,
1147,1148,1149,1150,1151,
1243,1244,1245,1246,1247,
1255,1256,1257,1258,1259,
1267,1268,1269,1270,1271,
1279,1280,1281,1282,1283,
1291,1292,1293,1294,1295,
1387,1388,1389,1390,1391,
1399,1400,1401,1402,1403,
1411,1412,1413,1414,1415,
1423,1424,1425,1426,1427,
1435,1436,1437,1438,1439,
1531,1532,1533,1534,1535,
1543,1544,1545,1546,1547,
1555,1556,1557,1558,1559,
1567,1568,1569,1570,1571,
1579,1580,1581,1582,1583,
1675,1676,1677,1678,1679,
1687,1688,1689,1690,1691,
1699,1700,1701,1702,1703,
1711,1712,1713,1714,1715,
1723,1724,1725,1726,1727
512,
1100,1101,1102,1103,1104,
1112,1113,1114,1115,1116,
1124,1125,1126,1127,1128,
1136,1137,1138,1139,1140,
1148,1149,1150,1151,1152,
1244,1245,1246,1247,1248,
1256,1257,1258,1259,1260,
1268,1269,1270,1271,1272,
1280,1281,1282,1283,1284,
1292,1293,1294,1295,1296,
1388,1389,1390,1391,1392,
1400,1401,1402,1403,1404,
1412,1413,1414,1415,1416,
1424,1425,1426,1427,1428,
1436,1437,1438,1439,1440,
1532,1533,1534,1535,1536,
1544,1545,1546,1547,1548,
1556,1557,1558,1559,1560,
1568,1569,1570,1571,1572,
1580,1581,1582,1583,1584,
1676,1677,1678,1679,1680,
1688,1689,1690,1691,1692,
1700,1701,1702,1703,1704,
1712,1713,1714,1715,1716,
1724,1725,1726,1727,1728
**
*UEL PROPERTY,ELSET=ELSET1 
5, 5, 5, 8, 8, 8, 1728, 4, 
4, 4, 17, 17, 17, 4, 4, 4, 
1, 1, 1, 1, 200000, 0.3, 1 
**
** --- Max number of nodes or elements in line is 10!
**
*NSET, NSET=NSET_left1
1, 13, 25, 37, 49, 61, 73, 85, 97, 109,
121, 133, 145, 157, 169, 181, 193, 205, 217, 229,
241, 253, 265, 277, 289, 301, 313, 325, 337, 349,
361, 373, 385, 397, 409, 421, 433, 445, 457, 469,
481, 493, 505, 517, 529, 541, 553, 565, 577, 589,
601, 613, 625, 637, 649, 661, 673, 685, 697, 709,
721, 733, 745, 757, 769, 781, 793, 805, 817, 829,
841, 853, 865, 877, 889, 901, 913, 925, 937, 949,
961, 973, 985, 997, 1009, 1021, 1033, 1045, 1057, 1069,
1081, 1093, 1105, 1117, 1129, 1141, 1153, 1165, 1177, 1189,
1201, 1213, 1225, 1237, 1249, 1261, 1273, 1285, 1297, 1309,
1321, 1333, 1345, 1357, 1369, 1381, 1393, 1405, 1417, 1429,
1441, 1453, 1465, 1477, 1489, 1501, 1513, 1525, 1537, 1549,
1561, 1573, 1585, 1597, 1609, 1621, 1633, 1645, 1657, 1669,
1681, 1693, 1705, 1717
**
*NSET, NSET=NSET_left2
2, 14, 26, 38, 50, 62, 74, 86, 98, 110,
122, 134, 146, 158, 170, 182, 194, 206, 218, 230,
242, 254, 266, 278, 290, 302, 314, 326, 338, 350,
362, 374, 386, 398, 410, 422, 434, 446, 458, 470,
482, 494, 506, 518, 530, 542, 554, 566, 578, 590,
602, 614, 626, 638, 650, 662, 674, 686, 698, 710,
722, 734, 746, 758, 770, 782, 794, 806, 818, 830,
842, 854, 866, 878, 890, 902, 914, 926, 938, 950,
962, 974, 986, 998, 1010, 1022, 1034, 1046, 1058, 1070,
1082, 1094, 1106, 1118, 1130, 1142, 1154, 1166, 1178, 1190,
1202, 1214, 1226, 1238, 1250, 1262, 1274, 1286, 1298, 1310,
1322, 1334, 1346, 1358, 1370, 1382, 1394, 1406, 1418, 1430,
1442, 1454, 1466, 1478, 1490, 1502, 1514, 1526, 1538, 1550,
1562, 1574, 1586, 1598, 1610, 1622, 1634, 1646, 1658, 1670,
1682, 1694, 1706, 1718
**
*NSET, NSET=NSET_right1
12, 24, 36, 48, 60, 72, 84, 96, 108, 120,
132, 144, 156, 168, 180, 192, 204, 216, 228, 240,
252, 264, 276, 288, 300, 312, 324, 336, 348, 360,
372, 384, 396, 408, 420, 432, 444, 456, 468, 480,
492, 504, 516, 528, 540, 552, 564, 576, 588, 600,
612, 624, 636, 648, 660, 672, 684, 696, 708, 720,
732, 744, 756, 768, 780, 792, 804, 816, 828, 840,
852, 864, 876, 888, 900, 912, 924, 936, 948, 960,
972, 984, 996, 1008, 1020, 1032, 1044, 1056, 1068, 1080,
1092, 1104, 1116, 1128, 1140, 1152, 1164, 1176, 1188, 1200,
1212, 1224, 1236, 1248, 1260, 1272, 1284, 1296, 1308, 1320,
1332, 1344, 1356, 1368, 1380, 1392, 1404, 1416, 1428, 1440,
1452, 1464, 1476, 1488, 1500, 1512, 1524, 1536, 1548, 1560,
1572, 1584, 1596, 1608, 1620, 1632, 1644, 1656, 1668, 1680,
1692, 1704, 1716, 1728
**
*NSET, NSET=NSET_right2
11, 23, 35, 47, 59, 71, 83, 95, 107, 119,
131, 143, 155, 167, 179, 191, 203, 215, 227, 239,
251, 263, 275, 287, 299, 311, 323, 335, 347, 359,
371, 383, 395, 407, 419, 431, 443, 455, 467, 479,
491, 503, 515, 527, 539, 551, 563, 575, 587, 599,
611, 623, 635, 647, 659, 671, 683, 695, 707, 719,
731, 743, 755, 767, 779, 791, 803, 815, 827, 839,
851, 863, 875, 887, 899, 911, 923, 935, 947, 959,
971, 983, 995, 1007, 1019, 1031, 1043, 1055, 1067, 1079,
1091, 1103, 1115, 1127, 1139, 1151, 1163, 1175, 1187, 1199,
1211, 1223, 1235, 1247, 1259, 1271, 1283, 1295, 1307, 1319,
1331, 1343, 1355, 1367, 1379, 1391, 1403, 1415, 1427, 1439,
1451, 1463, 1475, 1487, 1499, 1511, 1523, 1535, 1547, 1559,
1571, 1583, 1595, 1607, 1619, 1631, 1643, 1655, 1667, 1679,
1691, 1703, 1715, 1727
**
*NSET, NSET=NSET_bottom1
1, 2, 3, 4, 5, 6, 7, 8, 9, 10,
11, 12, 145, 146, 147, 148, 149, 150, 151, 152,
153, 154, 155, 156, 289, 290, 291, 292, 293, 294,
295, 296, 297, 298, 299, 300, 433, 434, 435, 436,
437, 438, 439, 440, 441, 442, 443, 444, 577, 578,
579, 580, 581, 582, 583, 584, 585, 586, 587, 588,
721, 722, 723, 724, 725, 726, 727, 728, 729, 730,
731, 732, 865, 866, 867, 868, 869, 870, 871, 872,
873, 874, 875, 876, 1009, 1010, 1011, 1012, 1013, 1014,
1015, 1016, 1017, 1018, 1019, 1020, 1153, 1154, 1155, 1156,
1157, 1158, 1159, 1160, 1161, 1162, 1163, 1164, 1297, 1298,
1299, 1300, 1301, 1302, 1303, 1304, 1305, 1306, 1307, 1308,
1441, 1442, 1443, 1444, 1445, 1446, 1447, 1448, 1449, 1450,
1451, 1452, 1585, 1586, 1587, 1588, 1589, 1590, 1591, 1592,
1593, 1594, 1595, 1596
**
*NSET, NSET=NSET_bottom2
13, 14, 15, 16, 17, 18, 19, 20, 21, 22,
23, 24, 157, 158, 159, 160, 161, 162, 163, 164,
165, 166, 167, 168, 301, 302, 303, 304, 305, 306,
307, 308, 309, 310, 311, 312, 445, 446, 447, 448,
449, 450, 451, 452, 453, 454, 455, 456, 589, 590,
591, 592, 593, 594, 595, 596, 597, 598, 599, 600,
733, 734, 735, 736, 737, 738, 739, 740, 741, 742,
743, 744, 877, 878, 879, 880, 881, 882, 883, 884,
885, 886, 887, 888, 1021, 1022, 1023, 1024, 1025, 1026,
1027, 1028, 1029, 1030, 1031, 1032, 1165, 1166, 1167, 1168,
1169, 1170, 1171, 1172, 1173, 1174, 1175, 1176, 1309, 1310,
1311, 1312, 1313, 1314, 1315, 1316, 1317, 1318, 1319, 1320,
1453, 1454, 1455, 1456, 1457, 1458, 1459, 1460, 1461, 1462,
1463, 1464, 1597, 1598, 1599, 1600, 1601, 1602, 1603, 1604,
1605, 1606, 1607, 1608
**
*NSET, NSET=NSET_top1
133, 134, 135, 136, 137, 138, 139, 140, 141, 142,
143, 144, 277, 278, 279, 280, 281, 282, 283, 284,
285, 286, 287, 288, 421, 422, 423, 424, 425, 426,
427, 428, 429, 430, 431, 432, 565, 566, 567, 568,
569, 570, 571, 572, 573, 574, 575, 576, 709, 710,
711, 712, 713, 714, 715, 716, 717, 718, 719, 720,
853, 854, 855, 856, 857, 858, 859, 860, 861, 862,
863, 864, 997, 998, 999, 1000, 1001, 1002, 1003, 1004,
1005, 1006, 1007, 1008, 1141, 1142, 1143, 1144, 1145, 1146,
1147, 1148, 1149, 1150, 1151, 1152, 1285, 1286, 1287, 1288,
1289, 1290, 1291, 1292, 1293, 1294, 1295, 1296, 1429, 1430,
1431, 1432, 1433, 1434, 1435, 1436, 1437, 1438, 1439, 1440,
1573, 1574, 1575, 1576, 1577, 1578, 1579, 1580, 1581, 1582,
1583, 1584, 1717, 1718, 1719, 1720, 1721, 1722, 1723, 1724,
1725, 1726, 1727, 1728
**
*NSET, NSET=NSET_top2
121, 122, 123, 124, 125, 126, 127, 128, 129, 130,
131, 132, 265, 266, 267, 268, 269, 270, 271, 272,
273, 274, 275, 276, 409, 410, 411, 412, 413, 414,
415, 416, 417, 418, 419, 420, 553, 554, 555, 556,
557, 558, 559, 560, 561, 562, 563, 564, 697, 698,
699, 700, 701, 702, 703, 704, 705, 706, 707, 708,
841, 842, 843, 844, 845, 846, 847, 848, 849, 850,
851, 852, 985, 986, 987, 988, 989, 990, 991, 992,
993, 994, 995, 996, 1129, 1130, 1131, 1132, 1133, 1134,
1135, 1136, 1137, 1138, 1139, 1140, 1273, 1274, 1275, 1276,
1277, 1278, 1279, 1280, 1281, 1282, 1283, 1284, 1417, 1418,
1419, 1420, 1421, 1422, 1423, 1424, 1425, 1426, 1427, 1428,
1561, 1562, 1563, 1564, 1565, 1566, 1567, 1568, 1569, 1570,
1571, 1572, 1705, 1706, 1707, 1708, 1709, 1710, 1711, 1712,
1713, 1714, 1715, 1716
**
*NSET, NSET=NSET_back1
1, 2, 3, 4, 5, 6, 7, 8, 9, 10,
11, 12, 13, 14, 15, 16, 17, 18, 19, 20,
21, 22, 23, 24, 25, 26, 27, 28, 29, 30,
31, 32, 33, 34, 35, 36, 37, 38, 39, 40,
41, 42, 43, 44, 45, 46, 47, 48, 49, 50,
51, 52, 53, 54, 55, 56, 57, 58, 59, 60,
61, 62, 63, 64, 65, 66, 67, 68, 69, 70,
71, 72, 73, 74, 75, 76, 77, 78, 79, 80,
81, 82, 83, 84, 85, 86, 87, 88, 89, 90,
91, 92, 93, 94, 95, 96, 97, 98, 99, 100,
101, 102, 103, 104, 105, 106, 107, 108, 109, 110,
111, 112, 113, 114, 115, 116, 117, 118, 119, 120,
121, 122, 123, 124, 125, 126, 127, 128, 129, 130,
131, 132, 133, 134, 135, 136, 137, 138, 139, 140,
141, 142, 143, 144
**
*NSET, NSET=NSET_back2
145, 146, 147, 148, 149, 150, 151, 152, 153, 154,
155, 156, 157, 158, 159, 160, 161, 162, 163, 164,
165, 166, 167, 168, 169, 170, 171, 172, 173, 174,
175, 176, 177, 178, 179, 180, 181, 182, 183, 184,
185, 186, 187, 188, 189, 190, 191, 192, 193, 194,
195, 196, 197, 198, 199, 200, 201, 202, 203, 204,
205, 206, 207, 208, 209, 210, 211, 212, 213, 214,
215, 216, 217, 218, 219, 220, 221, 222, 223, 224,
225, 226, 227, 228, 229, 230, 231, 232, 233, 234,
235, 236, 237, 238, 239, 240, 241, 242, 243, 244,
245, 246, 247, 248, 249, 250, 251, 252, 253, 254,
255, 256, 257, 258, 259, 260, 261, 262, 263, 264,
265, 266, 267, 268, 269, 270, 271, 272, 273, 274,
275, 276, 277, 278, 279, 280, 281, 282, 283, 284,
285, 286, 287, 288
**
*NSET, NSET=NSET_front1
1585, 1586, 1587, 1588, 1589, 1590, 1591, 1592, 1593, 1594,
1595, 1596, 1597, 1598, 1599, 1600, 1601, 1602, 1603, 1604,
1605, 1606, 1607, 1608, 1609, 1610, 1611, 1612, 1613, 1614,
1615, 1616, 1617, 1618, 1619, 1620, 1621, 1622, 1623, 1624,
1625, 1626, 1627, 1628, 1629, 1630, 1631, 1632, 1633, 1634,
1635, 1636, 1637, 1638, 1639, 1640, 1641, 1642, 1643, 1644,
1645, 1646, 1647, 1648, 1649, 1650, 1651, 1652, 1653, 1654,
1655, 1656, 1657, 1658, 1659, 1660, 1661, 1662, 1663, 1664,
1665, 1666, 1667, 1668, 1669, 1670, 1671, 1672, 1673, 1674,
1675, 1676, 1677, 1678, 1679, 1680, 1681, 1682, 1683, 1684,
1685, 1686, 1687, 1688, 1689, 1690, 1691, 1692, 1693, 1694,
1695, 1696, 1697, 1698, 1699, 1700, 1701, 1702, 1703, 1704,
1705, 1706, 1707, 1708, 1709, 1710, 1711, 1712, 1713, 1714,
1715, 1716, 1717, 1718, 1719, 1720, 1721, 1722, 1723, 1724,
1725, 1726, 1727, 1728
**
*NSET, NSET=NSET_front2
1441, 1442, 1443, 1444, 1445, 1446, 1447, 1448, 1449, 1450,
1451, 1452, 1453, 1454, 1455, 1456, 1457, 1458, 1459, 1460,
1461, 1462, 1463, 1464, 1465, 1466, 1467, 1468, 1469, 1470,
1471, 1472, 1473, 1474, 1475, 1476, 1477, 1478, 1479, 1480,
1481, 1482, 1483, 1484, 1485, 1486, 1487, 1488, 1489, 1490,
1491, 1492, 1493, 1494, 1495, 1496, 1497, 1498, 1499, 1500,
1501, 1502, 1503, 1504, 1505, 1506, 1507, 1508, 1509, 1510,
1511, 1512, 1513, 1514, 1515, 1516, 1517, 1518, 1519, 1520,
1521, 1522, 1523, 1524, 1525, 1526, 1527, 1528, 1529, 1530,
1531, 1532, 1533, 1534, 1535, 1536, 1537, 1538, 1539, 1540,
1541, 1542, 1543, 1544, 1545, 1546, 1547, 1548, 1549, 1550,
1551, 1552, 1553, 1554, 1555, 1556, 1557, 1558, 1559, 1560,
1561, 1562, 1563, 1564, 1565, 1566, 1567, 1568, 1569, 1570,
1571, 1572, 1573, 1574, 1575, 1576, 1577, 1578, 1579, 1580,
1581, 1582, 1583, 1584
**
*STEP,NAME=STEP1
*STATIC
**
*BOUNDARY, TYPE=DISPLACEMENT
NSET_left1,1,3,0
NSET_right1,1,3,0
NSET_bottom1,1,3,0
NSET_top1,1,3,0
NSET_front1,1,3,0
NSET_back1,1,3,0
*END STEP
